@relation base_clusterizacao_final

@attribute AMT_CREDIT numeric
@attribute CNT_CHILDREN numeric
@attribute FLAG_OWN_CAR_COD {N,Y}
@attribute AGE_YEARS numeric
@attribute CREDIT_INCOME_RATIO numeric
@attribute SER_CREDITOS_ATIVOS numeric

@data
0.28970642293284332,0.80000000000000004,Y,0.71580306291416462,0.1673522468231218,0.39460023132349231
0.85212787159542636,0,Y,0.90478627052839999,0.3858899385707677,0.26306682088232819
0.31006199275736429,0,Y,1.3046840703442015,0.18196024030467059,0.39460023132349231
0.1444888886249317,0,N,1.5239979162175112,0.076396143039366898,0
0.1813056496449412,0,N,1.6135899553827782,0.2039267148662734,0.13153341044116409
0.074290853464664394,0,N,1.461003513679433,0.13295222974144241,0.39460023132349231
0.58911778623899214,0.40000000000000002,N,1.0251755731567276,0.5963213600725602,0
0.52710538768751936,0,Y,0.39663142338790092,0.4262748048686939,0.26306682088232819
0.50775751933945978,0,N,2.020953758462352,0.44653410346620459,0.26306682088232819
0.58911778623899214,0.40000000000000002,N,0.13532130915587201,0.67768680302820106,0
0.19769552658209541,1.6000000000000001,N,0.71346993689423599,0.36640065546774281,0.39460023132349231
0.1240247971029457,0,Y,0.094724916409110502,0.1239497461885624,0.39460023132349231
0.37759349477991822,0,N,1.895431578590181,0.16345488246348769,1.0522672835293128
0.74414878261767436,0.80000000000000004,Y,1.1576971310886852,0.13282886615873421,0.13153341044116409
0.50230042826693022,0,Y,0.44936007143829249,0.32035687638430438,0.26306682088232819
0.066973390435590599,0.40000000000000002,N,0.32150476554619267,0.093916829768751903,0.39460023132349231
0.4960991884117828,0,Y,1.8898320761423519,0.22208786295280189,0.13153341044116409
0.2821564134092015,0,N,0.57254912529053481,0.75294985081454313,0
0.50775751933945978,0,N,1.9084970843017823,0.19902431769104489,0
0.53731882972894685,0,N,2.015820881218509,0.39024085428859329,0.39460023132349231
0.1240247971029457,0,N,2.095613791100075,0.1959177034546711,0
0.48933983696967231,0,Y,0.2515109849483278,0.2082556280103994,0.26306682088232819
0.3160399879777262,0.40000000000000002,N,0.34110302411359478,0.33356737080345689,0
0.1550620025779578,0.40000000000000002,Y,0.10825704732469769,0.081020412766034999,0.26306682088232819
0.2027402352042578,0,N,0.8035286012634888,0.22455095784721299,0.13153341044116409
0.31384474906900411,0,Y,1.9276287176651989,0.18398238870514519,0.39460023132349231
0.67506697063133358,0.40000000000000002,Y,0.40129767542775868,1.1319410502180824,0
0.2276010057835432,0.80000000000000004,N,0.39663142338790092,0.1633456154449463,0.52613364176465638
0.60772150580443396,0.80000000000000004,Y,1.2010932750593617,0.21913437171237729,0.52613364176465638
0.43408678986031002,0.80000000000000004,N,0.75873258168085522,0.37256637329829878,0
0.46088234727440142,0.80000000000000004,N,0.69013867669494777,0.26258169792928709,0.26306682088232819
0.21704339493015501,0,N,1.6849836115926005,0.19853474177998279,0
0.32629683869813991,0,N,1.8837659484905367,0.21451330914051961,0.13153341044116409
1.1472293732022478,0,Y,1.8711670679829211,0.56648736183599191,0.52613364176465638
0.1240247971029457,0.80000000000000004,N,0.85299087288598008,0.092872639830472004,0.52613364176465638
0.1240247971029457,0.40000000000000002,Y,0.71580306291416462,0.1239497461885624,0.26306682088232819
0.2480495942058914,0,N,1.0443072065201442,0.14881138652403739,0.13153341044116409
0.13952789674081389,0,N,1.4554040112316036,0.1220943698382302,0.26306682088232819
0.52617520170924725,0,N,1.7745756507578676,0.26244379027243858,1.0522672835293128
0.3445408863519831,0,Y,0.49322284061295452,0.2577480681199939,0.13153341044116409
0.1444888886249317,0.80000000000000004,N,0.40269755103971588,0.2634858172458463,0
0.1085216974650775,0.40000000000000002,N,0.44469381939843489,0.1338943874057533,0.13153341044116409
0.1444888886249317,0,N,0.1208559278323133,0.1685018253601723,0
0.37728343278716081,0,N,0.2095147165896088,0.28025148006485939,0
0.2027402352042578,0,Y,0.95098216572299077,0.21590059005852,0.26306682088232819
0.43408678986031002,0.80000000000000004,Y,0.6248111481369405,0.30201299505857693,0.13153341044116409
0.50775751933945978,0.80000000000000004,Y,0.68220604822718967,0.36992390148949039,0
0.81168028464022823,0,N,1.0830370984509623,0.5064091478871029,0
0.41796356623692699,0,N,1.5216647901975826,0.30821018775727249,0.13153341044116409
0.43408678986031002,0,N,1.4404720047040591,0.38542587072819789,0
0.15472093438592471,0,N,2.0097547535666931,0.70879083456969993,0.13153341044116409
0.055563109102119597,0,N,1.0293751999925995,0.051701722264007897,0.26306682088232819
0.2325464945680232,0,Y,1.281819435348899,0.013729680573464201,0.26306682088232819
0.21704339493015501,0,N,0.15911919455914611,0.1322369596337207,0.13153341044116409
0.58911778623899214,0.40000000000000002,N,0.45915920072199351,0.33113023148751158,0.39460023132349231
0.1767353358716976,0,N,0.1488534400714594,0.1245712629568257,0.26306682088232819
0.83419078531441282,0.40000000000000002,Y,1.0466403325400728,0.2969585190773375,0.13153341044116409
0.27270572386995701,0.80000000000000004,Y,0.4759577080654811,0.29187137486802911,0.52613364176465638
0.46505578169691558,0.40000000000000002,Y,1.189894270163703,0.1701086099201983,0
0.71190233537090841,0,Y,0.52868635611587267,0.39676502760796151,0.13153341044116409
0.21309940638228131,0,N,1.7251133791353763,0.19537233796690659,0.52613364176465638
0.13952789674081389,0,N,1.00837706581324,0.081684890491758894,0.13153341044116409
0.29196367424011688,0.40000000000000002,N,0.40643055267160211,0.155021333256979,0
0.13425684286393871,0,N,1.3308150817674045,0.26466672148104531,0.26306682088232819
0.74724940254524796,0,N,1.841769680131818,0.39795704500750367,0.65766705220582056
0.3565712916709689,0.80000000000000004,Y,0.84552486962220763,0.1550267779616572,0.39460023132349231
0.1444888886249317,0.80000000000000004,Y,0.84599149482619362,0.1051791641030564,0.26306682088232819
0.084144623594493498,0,N,0.78159721667615789,0.083578901869807404,0.39460023132349231
0.20588116319088989,0,Y,1.0531730853958736,0.2031518513470742,0.52613364176465638
0.74414878261767436,0.40000000000000002,Y,1.7666430222901095,0.74549135125540111,0
0.44098566919916138,0,N,0.85112437207003711,0.32403287247702323,0.39460023132349231
0.077515498189341003,0.40000000000000002,N,0.243111731276584,0.13016513762618229,0.26306682088232819
0.24254909445437581,0.40000000000000002,N,0.45495957388612168,0.26285482818314287,0.39460023132349231
0.15503099637868209,0,N,1.2790196841249839,0.082513604377775204,0.26306682088232819
0.33323602609604969,0,N,1.1394987481332404,0.17487735078332689,0.26306682088232819
0.83468688450282469,0,N,1.2930184402445573,0.69377911250701463,0.9207338730881488
0.098481890139594006,0,N,1.2197582832187921,0.079508574905396895,0
0.13425684286393871,0,N,2.203870838424772,0.198410408592332,0.13153341044116409
0.1240247971029457,0,N,1.5165319129537391,0.37256637329829878,0.13153341044116409
0.23874773442317049,0,N,1.1824282668999306,0.25919717999933961,0.78920046264698474
0.67506697063133358,0,Y,0.57814862773836395,0.24227705165445679,0.26306682088232819
0.37207439130883718,0,N,0.59168075865395109,0.38748337241658293,0
1.3565832307120202,0,N,1.3555462175786497,0.74138089756336223,0.39460023132349231
0.81168028464022823,0,Y,0.41856280797523188,0.40505559737792157,0
0.16976514227451209,0,N,0.3551017802331678,0.090764569515076096,0.39460023132349231
0.29225203189338128,0,N,1.7232468783194337,0.1157001235811821,0.13153341044116409
0.2821564134092015,0,Y,1.5454626756008565,0.2786445463348422,0.26306682088232819
0.50321511114556439,0,N,1.5916585707954474,0.4279954807169879,0.39460023132349231
0.74426660617492213,0,Y,1.0121100674451262,0.21156280129991861,0.65766705220582056
0.93837161488088738,0,Y,1.9467603510286151,0.43226204080479957,0.52613364176465638
0.15217222480545919,0,Y,1.8874989501224231,0.1912210862822793,0
1.1315650413281455,0.40000000000000002,Y,0.97851305275815104,0.46573295259639658,0.13153341044116409
1.1315650413281455,0,N,0.81939385819900501,0.46573295259639658,0.13153341044116409
0.43408678986031002,0,N,1.9033642070579391,0.65774426690696708,0
0.15503099637868209,0,N,0.049462271622491102,0.17864538476060551,0.52613364176465638
0.13937286574443519,0,N,1.7918407833053407,0.31490642866147028,0.13153341044116409
0.66278851571814201,0,Y,1.5580615561084721,0.66720693988264623,0.39460023132349231
0.2821564134092015,0,N,1.5631944333523158,0.2786445463348422,0
0.056741344674597599,0,N,2.0125545047906082,0.17553765174929781,0
0.062012398551472801,0.40000000000000002,Y,0.89312064042875594,0.063571402217413295,0
0.14357730636622509,0.40000000000000002,N,0.41856280797523188,0.073318318611291303,0.78920046264698474
0.33535374950658248,0,N,1.1147676123219947,0.35215096830501519,0
0.2366889227912615,0,N,0.44002756735857718,0.1167208192458507,0.26306682088232819
0.51503157368954744,0,Y,1.0471069577440586,0.222266195677261,0.13153341044116409
0.2480495942058914,0.40000000000000002,Y,0.25804373780412859,0.22339638211545779,0.39460023132349231
0.31484934992553798,0,N,1.5463959260088282,0.55427533675282192,0
0.13937286574443519,0,N,2.0825482853884729,0.2098181090830441,0
0.062012398551472801,0,Y,2.0377522658058398,0.089143390050900995,0.13153341044116409
0.093018597827209296,0.40000000000000002,Y,0.39149854614405749,0.14881138652403739,0.39460023132349231
0.564312826818403,0.80000000000000004,N,0.53988536101153117,0.57245416148330563,0
0.1052970527404009,0,Y,0.89685364206064189,0.29771018666290788,0
0.38953088150107668,0.80000000000000004,Y,0.65327528558007231,0.1979936276369671,0.9207338730881488
0.66278851571814201,0,N,1.6308550879302519,0.33342416761192128,0.13153341044116409
0.1444888886249317,0,N,1.8562350614553769,0.2634858172458463,0.26306682088232819
0.48343935724749959,0,N,1.0695049675353754,0.41213871065425189,0.39460023132349231
0.4960991884117828,0,Y,1.0247089479527418,0.50681936536285566,0.13153341044116409
0.046211639400557503,0.40000000000000002,N,1.0153764438730264,0.15443009799692581,0.13153341044116409
0.41796356623692699,0.80000000000000004,N,0.50955472275245617,0.30821018775727249,0.52613364176465638
0.85670128598859752,0.80000000000000004,Y,1.0242423227487565,0.71143084507365395,0.39460023132349231
0.061857367555094099,0,N,0.32057151513822119,0.088994220059718104,0.26306682088232819
0.3445408863519831,0,Y,0.93745003480740363,0.20039108773525771,0.39460023132349231
0.1085216974650775,0,N,0.48062396010533881,0.1115188887283271,0.52613364176465638
0.19223843550956579,0.40000000000000002,N,0.34670252656142397,0.15307339692711791,0
0.71190233537090841,0,N,1.2300240377064788,0.1485627947337311,0.52613364176465638
0.64267169362804411,0,N,1.0662385911074752,0.73624281180206497,0.26306682088232819
0.44338864964303087,0,N,1.8595014378832773,0.45610156836068971,0.13153341044116409
0.13022603695809301,0.40000000000000002,Y,0.65887478802790134,0.12892202950466,0.26306682088232819
0.0918403622547313,0,N,2.1782064522055551,0.19664520550166981,0
0.1885486977957532,0,Y,1.8310373004401452,0.26370957223262059,0.9207338730881488
0.039191835884530797,0.40000000000000002,Y,0.34203627452156621,0.1122149904921818,0.65766705220582056
0.035099017580133597,0,N,1.8263710484002875,0.1056515108801368,0.13153341044116409
0.1240247971029457,0.40000000000000002,Y,0.37983291604441349,0.10619135707822749,0.26306682088232819
0.37835934790202891,0,N,1.950959977864487,0.35132829580364178,0.52613364176465638
0.33176633225037971,0,N,1.1889610197557312,0.1935623838788896,0.9207338730881488
0.41002597922233852,0,Y,0.68033954741124658,0.35327369624365279,0.13153341044116409
0.18541707166890381,0.40000000000000002,N,0.50302196989665571,0.2078827030324423,0.26306682088232819
0.34416261072081922,0,Y,0.75593283045694082,0.30046259675521808,0.78920046264698474
0.13952789674081389,0,Y,0.1077904221207118,0.16372838564232139,0.13153341044116409
0.89917977899635648,0,Y,0.33083726962590798,0.55902886227685,0
0.67506697063133358,0,N,0.1418540620116728,0.65289124499882001,0.13153341044116409
0.58911778623899214,0,N,1.4843347738787211,0.74549135125540111,0.13153341044116409
0.68734542554452505,0,N,1.5631944333523158,0.5756364794902048,0.26306682088232819
0.20154029529228679,0,Y,0.55015111549921791,0.22339638211545779,0
0.41002597922233852,0.40000000000000002,Y,0.83385923952256358,0.1175188041136833,0
0.3445408863519831,0.40000000000000002,N,0.44842682103032089,0.18031608866185339,0
0.58911778623899214,0,N,1.7433117620908214,0.2482580224509327,0.52613364176465638
0.2821564134092015,0.80000000000000004,Y,1.0009110625494679,0.30096477753053508,0
0.19432205210089529,0,N,1.6569860993534546,0.54166547530316733,0
0.049721541158570901,0,Y,1.6439205936418531,0.087909381298840905,0
0.13952789674081389,0,N,1.7549773921904652,0.16372838564232139,0.13153341044116409
0.71190233537090841,0,N,1.9920229958152345,0.71446399308937014,0.13153341044116409
0.46509298913604641,0,N,0.92298465348384495,0.19853474177998279,0.13153341044116409
0.1485817069293289,0,N,2.105879545587761,0.2156395425739501,0.13153341044116409
0.15503099637868209,0,N,0.24031198005266929,0.17864538476060551,0.13153341044116409
0.1976366148034715,0,N,2.0517510219254129,0.21964028173747391,0
0.19840246792558219,0,N,0.94631591368313317,0.1376012616866468,0.39460023132349231
0.1085216974650775,0.80000000000000004,N,1.0844369740629201,0.16745763542189249,0.39460023132349231
0.26943146922643929,0.80000000000000004,N,0.41482980634334587,0.3281408648642074,0.26306682088232819
0.27905579348162779,0.40000000000000002,N,0.89732026726462766,0.2482580224509327,0.52613364176465638
0.35710149767858401,0,N,0.33270377044185101,0.23303835742053869,0
1.0542107753750387,0,Y,0.31590526309836348,0.40125288137769299,0.13153341044116409
0.049721541158570901,0.80000000000000004,N,0.42882856246291889,0.107524414704433,0
0.6356270851525968,0,N,1.1754288888401443,0.64107235742741231,0.13153341044116409
0.67475690863857618,0,Y,1.1460315009890409,0.53017379210741922,0.39460023132349231
0.1085216974650775,0,N,0.98177942918605121,0.16745763542189249,0.13153341044116409
0.50775751933945978,0,N,0.94071641123530381,0.32363861619032702,1.0522672835293128
0.75965188225554248,0,N,1.5169985381577249,0.44194779750229268,0.39460023132349231
0.18603719565441859,0,Y,1.0060439397933114,0.1736730268595123,0.39460023132349231
0.037145426732332197,0,N,1.9038308322619248,0.1925093929111299,0
0.78568468716745077,0.80000000000000004,Y,1.1950271474075462,0.32706452879282771,0.52613364176465638
0.32816961313439441,0.40000000000000002,N,0.3014398817748048,0.191639731862534,0
0.38204598499591391,0,N,0.65094215956014356,0.52258424671102299,0
0.67506697063133358,0,Y,0.94911566490704757,0.42425377524315311,0.26306682088232819
0.081533901615476495,0.40000000000000002,N,0.11712292620042709,0.067319820340851294,0.13153341044116409
0.53731882972894685,0,N,1.6093903285469069,0.39024085428859329,0.39460023132349231
0.58560788448097878,0,N,1.530530669073312,0.59294415147218071,0.13153341044116409
0.2281219099313756,0,N,0.15725269374320311,0.1681087624334055,0.26306682088232819
0.17810580987968519,0,N,1.7960404101412131,0.209231423507722,0.26306682088232819
0.2954270666992167,0.40000000000000002,N,0.75359970443701174,0.1566875620584913,0
0.17313861675571221,0,N,0.31357213707843462,0.069793879229614303,0.39460023132349231
0.1567673435381233,0,N,0.68453917424711852,0.26533947814127989,0.13153341044116409
0.1240247971029457,0.40000000000000002,N,0.398497924203844,0.14881138652403739,0.26306682088232819
0.1085216974650775,0.40000000000000002,N,1.0895698513067631,0.095536368363023996,0.26306682088232819
0.34416261072081922,0,N,1.9360279713369428,0.45087316016973111,0.13153341044116409
0.13425684286393871,0,N,1.7535775165785079,0.12387202862315611,0.26306682088232819
0.1240247971029457,0,N,1.5552618048845577,0.14307408490815851,0.26306682088232819
0.020107520230315,0,N,1.8651009403311061,0.1114171547943404,0.26306682088232819
0.66278851571814201,0,N,1.4246067477685431,0.37051110915978158,0.13153341044116409
0.082699734708244196,0,N,1.147898001804984,0.077789390757014604,0.26306682088232819
0.18541707166890381,0,N,1.1922273961836318,0.25994302995525381,0
0.36040055728152232,0.40000000000000002,N,0.25804373780412859,0.34835384617945597,0.13153341044116409
0.27905579348162779,0,N,1.5043996576501093,0.32392397838345971,0.39460023132349231
0.50775751933945978,0,Y,1.2262910360745929,0.32363861619032702,0.13153341044116409
0.093018597827209296,0,Y,0.82126035901494798,0.1189773882874692,0
0.1444888886249317,0,Y,1.2239579100546636,0.1051791641030564,0
0.21704339493015501,0.80000000000000004,N,0.7181361889340937,0.17513548945306889,0.13153341044116409
0.37207439130883718,0.40000000000000002,Y,0.81332773054718988,0.53831079137145643,0.13153341044116409
0.26943146922643929,0.40000000000000002,N,1.2328237889303937,0.18031608866185339,0.26306682088232819
0.54103337240218008,0,N,0.80959472891530382,0.68765814567381367,0.13153341044116409
0.1111262182042393,0,N,1.5743934382479741,0.28455607850042258,0
0.58296615630268611,0.40000000000000002,N,1.3065505711601446,0.73809251969273215,0
0.61826361355818449,0.40000000000000002,N,1.1931606465916034,0.23274732676774099,0.26306682088232819
0.90228039892392997,0,Y,1.5589948065164436,0.49853215191769729,0
1.0542107753750387,0,N,1.8268376736042733,0.40125288137769299,0.65766705220582056
0.79995994131399994,0,N,1.6873167376125291,0.3994169717112101,0.13153341044116409
0.13952789674081389,0.80000000000000004,N,0.71906943934206513,0.20475013321760269,0
0.22009440493888749,0,N,1.0200426959128843,0.20098112963538139,0.52613364176465638
0.14572913659596121,0,Y,1.5809261911037751,0.1059250140589706,0.39460023132349231
0.59367569753252536,0,N,0.33177052003387952,0.50052938892964438,0
1.1315650413281455,0.40000000000000002,Y,0.70740380924242086,0.46573295259639658,0.78920046264698474
0.45029062960180988,0,N,1.7554440173944512,0.25691987632894681,0.26306682088232819
0.52617520170924725,0,N,1.3583459688025643,0.60886521380111636,0.39460023132349231
0.36423912475185849,0,N,1.2272242864825642,0.2260121524958445,0.26306682088232819
0.86817357972062004,0.40000000000000002,N,1.5743934382479741,0.48030022267035249,0.39460023132349231
0.77858426753330712,0,N,0.92951740633964564,0.55605821648743925,0.52613364176465638
0.37728343278716081,0.40000000000000002,N,0.48808996336911109,0.24517520082815261,0
0.51389674679605557,0,N,0.26317661504797191,0.26179273784592111,0.39460023132349231
0.16743347608897671,0,N,0.69667142955074846,0.0791987488337101,0.39460023132349231
0.37575172654293948,0,N,1.6527864725175829,0.39102168460743991,0.26306682088232819
0.35656509043111378,0,N,1.8375700532959465,0.3449368091914306,0.13153341044116409
0.2055897049176979,0,N,0.44936007143829249,0.31582374952224912,0
0.22014401485772861,0.80000000000000004,N,0.77973071586021481,0.092585785937427403,0.9207338730881488
0.15503099637868209,0,N,0.1017242944688969,0.22339638211545779,0
0.3117983399168055,0,Y,0.9794463031661228,0.117443100343158,0.26306682088232819
0.58911778623899214,0.40000000000000002,N,0.53381923335971604,0.74549135125540111,0.39460023132349231
0.18603719565441859,0,N,1.3429473370710341,0.1156625327434041,0.65766705220582056
0.1240247971029457,0,N,2.0914141642642026,0.20682195522514121,0.39460023132349231
0.2318767606636673,0,Y,1.238889916582208,0.25258596599011612,0.26306682088232819
0.83419078531441282,0,Y,0.97804642755416538,0.20776336703949611,0.39460023132349231
0.50775751933945978,0,N,1.4801351470428492,0.53963676342308065,0
0.71190233537090841,0,Y,1.6037908260990772,0.2745731751804934,0.52613364176465638
0.1506808266202963,0.40000000000000002,Y,0.4190294331792177,0.174459674808015,0.39460023132349231
0.066973390435590599,0.40000000000000002,N,0.77599771422832886,0.13057953186168819,0.13153341044116409
0.20806399961990171,0,Y,0.56648299763871979,0.2126340655915982,0.52613364176465638
0.168034996354926,0.40000000000000002,N,0.39243179655202909,0.10603935285721219,0
0.0053516699949920999,0.80000000000000004,N,1.0195760707088986,0.016790126697567,0
0.27270572386995701,0.40000000000000002,N,1.568327310596159,0.24316640314188889,0.13153341044116409
0.34416261072081922,0,Y,1.1287663684415676,0.1384819613145904,0.65766705220582056
0.4898979485566356,0.40000000000000002,N,0.636010153032599,0.2084793829971737,0.39460023132349231
0.87307255920618643,0,Y,2.017220756830465,0.54332872070485605,0.39460023132349231
0.79140223031389656,0.40000000000000002,Y,0.33597014686975141,0.59912396586690331,0.39460023132349231
0.35058089397089659,0,N,1.6229224594624938,0.26189931980462122,0.39460023132349231
0.2366889227912615,0,Y,1.3770109769619949,0.32160990431024028,0
0.2480495942058914,0,N,1.5300640438693265,0.16745763542189249,0.26306682088232819
0.37053648382476068,0.40000000000000002,Y,0.28277487361537401,0.19282250072262269,0.13153341044116409
0.18603719565441859,0,N,1.9206293396054119,0.13016513762618229,0.26306682088232819
1.0072301822324428,0,N,0.51748735122021416,0.83212928213439519,0.26306682088232819
0.37191315907260331,0,N,0.9332504079715318,0.32271376224499337,0.26306682088232819
0.58142824881860955,0,Y,1.1945605222035609,0.39780429493653241,0.13153341044116409
0.13952789674081389,0,N,1.7974402857531702,0.16372838564232139,0.13153341044116409
0.16495298014691781,0,N,0.93231715756356015,0.21390372597155091,0
0.13937286574443519,0,Y,1.5715936870240594,0.1362562704611468,0.13153341044116409
0.66278851571814201,0,N,1.5071994088740237,0.2645483550930417,0.39460023132349231
0.52617520170924725,0,N,1.6495200960896823,0.3347144880356529,0.9207338730881488
0.89220958539917095,0,N,1.0452404569281155,0.63415086983652857,0.13153341044116409
0.39997997065699997,0,N,1.5510621780486855,0.2407417195202074,0.65766705220582056
0.1240247971029457,0,Y,0.65934141323188733,0.082513604377775204,0
0.45388114747794012,0,Y,0.84412499401025032,0.34269724552880709,0.39460023132349231
0.58911778623899214,0.80000000000000004,Y,0.58794775702206503,0.2402381216299741,0.39460023132349231
0.15217222480545919,0.40000000000000002,Y,0.52215360326007187,0.17589469012319389,0.78920046264698474
0.60473560881418054,0,N,0.74566707596925375,0.43657521651485581,0.26306682088232819
0.055215839670231401,0,Y,1.944893850212672,0.1724796669300496,0.52613364176465638
0.20154029529228679,0,N,1.9579593559242736,0.0857009941643746,0.13153341044116409
0.3445408863519831,0,Y,0.65467516119202951,0.12869476902309299,0.13153341044116409
0.3445408863519831,0,N,1.1077682342622082,0.1502036646367424,0.39460023132349231
0.11991957631883821,0,N,1.5781264398798602,0.1341043441683431,0.26306682088232819
0.1093898710447981,0,Y,0.40223092583573022,0.0500475016467858,0.78920046264698474
0.3255650923952324,0,N,1.7059817457719602,0.50418696252845208,0.39460023132349231
0.27070272339674439,0,Y,0.48529021214519641,0.21956771053676341,0.13153341044116409
0.0155030996378682,0.80000000000000004,Y,0.38309929247231378,0.061795533472381599,0.13153341044116409
0.15503099637868209,0,N,1.4876011503066218,0.22339638211545779,0
0.73645924519729167,0.40000000000000002,Y,0.92391790389181638,0.3688669575169643,0
0.43730523334513138,0.80000000000000004,Y,1.2010932750593617,0.18739420474347909,0
0.27905579348162779,0,N,0.67800642139131784,0.2127413934002543,0.26306682088232819
0.16495298014691781,0,N,1.964025483576088,0.1881922641963073,0
0.1976366148034715,0.40000000000000002,N,0.99437830969366725,0.1371406993388698,0
0.054183333234349401,0,N,1.9868901185713912,0.1704099333023876,0.39460023132349231
1.1570273321733806,0,N,1.6574527245574404,0.57120113355736979,0.26306682088232819
0.19432205210089529,0,Y,0.53661898458363078,0.1200911660266358,0.13153341044116409
0.48933983696967231,0,N,0.62107814650505444,0.35726578354768801,0
0.2956255063745814,0,N,1.4521376348037034,0.26154414605561488,0.39460023132349231
0.4481698055713495,0,N,1.034508077236443,0.27408218215451502,0.52613364176465638
0.3445408863519831,0,Y,1.696182616488259,0.30076585934729277,0.26306682088232819
0.1557658433015171,0,Y,1.6429873432338815,0.29915982063722268,0.26306682088232819
0.19355309835885701,0,N,1.4227402469526,0.33725037788576118,0
0.83419078531441282,0.40000000000000002,Y,1.2342236645423508,0.2308879974126424,0.26306682088232819
0.49627902436758209,0.40000000000000002,N,1.5897920699795045,0.46941081331400519,0.39460023132349231
0.160965582920058,0,Y,0.16285219619103219,0.11508778076737659,0
0.43408678986031002,0.80000000000000004,N,0.81239448013921822,0.37256637329829878,0.13153341044116409
0.1240247971029457,0.80000000000000004,N,0.20718159056968011,0.2482580224509327,0
0.1387403392792102,0.40000000000000002,N,0.36910053635274082,0.1357490924911251,0.13153341044116409
0.062012398551472801,0.40000000000000002,Y,0.4292951876669045,0.074226390932616904,0.52613364176465638
0.25479654316829159,0.80000000000000004,N,0.48435696173722492,0.32701977779547281,0.39460023132349231
0.20895697815904291,0,Y,1.2136921555669768,0.19205076977323829,0.26306682088232819
0.18541707166890381,0,Y,1.7195138766875473,0.1527599907756427,0.39460023132349231
0.13425684286393871,1.2,N,0.88332151114505475,0.17248399285979391,0.13153341044116409
0.037207439130883702,0,Y,1.7358457588270491,0.1090327470702783,0
0.093018597827209296,0.80000000000000004,Y,0.79232959636783029,0.19853474177998279,0
0.55426371763313687,0.80000000000000004,Y,0.49462271622491188,0.48510998528105642,0.39460023132349231
0.41996036547028448,0,N,1.6499867212936681,0.40141696836799412,0
0.52055997902041129,0.80000000000000004,Y,0.87865525910519704,0.20376218036599869,0
0.43408678986031002,0.40000000000000002,Y,0.40829705348754508,0.1717605929875527,0.9207338730881488
0.8602514958056694,0,N,1.5515288032526715,0.61218663282479358,0.13153341044116409
0.1271254170305193,0,N,1.9733579876558041,0.20525410403281391,0
0.2821564134092015,0,N,1.3765443517580094,0.25074423869397722,0
0.8602514958056694,0,N,1.6229224594624938,0.35695946297079401,0
0.73645924519729167,0.40000000000000002,Y,1.1707626368002864,0.26337393975245921,0.26306682088232819
1.3271149389203605,0.40000000000000002,Y,0.56834949845466287,0.4080091632033418,0.65766705220582056
0.36091215956957201,0,Y,1.4138743680768704,0.2353299814100851,0.13153341044116409
0.13798998925673739,0,N,1.2631544271894679,0.2029004253269355,0
0.46171331341499111,0,N,0.77833084024825749,0.33827860663498449,0.39460023132349231
0.1830543992840927,0,N,0.1311216823200001,0.17128138439087781,0
0.34316111048421288,0,N,1.0919029773266922,0.224655003916063,0.39460023132349231
0.83468688450282469,0,N,1.7699093987180099,0.27729649712452281,0.52613364176465638
0.4709221545998849,0,Y,0.95098216572299077,0.26794846128706779,0.39460023132349231
0.31006199275736429,0.40000000000000002,Y,0.34670252656142397,0.2340513708306613,0
0.27905579348162779,0,N,1.5249311666254828,0.33866413647719651,0
1.0342427830414644,0,N,1.8189050451365156,0.56907299987815985,0
0.1240247971029457,0.80000000000000004,Y,0.90338639491644279,0.061795533472381599,0.52613364176465638
0.063761148190624395,0,N,1.3798107281859096,0.22760297586681391,0
0.15503099637868209,0.40000000000000002,N,0.39429829736797217,0.22339638211545779,0
0.61551026306249901,0,N,1.3042174451402158,0.1397482653697415,0
0.8300979670100157,0,Y,0.49835571785679789,0.20677884509768929,0
0.0918403622547313,0,Y,1.0331082016244857,0.058742545847838001,0
0.36587315145368982,0,Y,1.87350019400285,0.1905789840552328,0.13153341044116409
0.71190233537090841,0,Y,0.97431342592227921,0.71446399308937014,0.26306682088232819
0.71055666632234138,0,N,1.438605503888116,0.8915511481220797,0
0.4718399380984466,0,N,0.53615235937964512,0.2684390813880681,0.26306682088232819
0.28445397277553358,0,N,1.9532931038844159,0.16827143230879049,0.13153341044116409
0.1061652263201215,0,N,0.14465381323558749,0.13162700353977411,0.13153341044116409
0.16495298014691781,1.2,N,0.54221848703145981,0.13432056607056261,0
0.21704339493015501,0,N,1.8277709240122451,0.19853474177998279,0.39460023132349231
0.23014041350422601,0.40000000000000002,N,0.53988536101153117,0.1791227287323906,0.26306682088232819
0.035099017580133597,0,N,1.6728513562889706,0.052646490403164402,0.39460023132349231
0.70756766871216048,0.80000000000000004,Y,0.86792287941352453,0.25344563264930281,0.39460023132349231
0.59221840616656585,0.80000000000000004,Y,0.82452673544284838,0.37443099818808429,0.52613364176465638
0.3036127033080111,0,Y,0.2174473450573669,0.1002565543940226,0.26306682088232819
0.36592276137253099,0,Y,0.18245045475843441,0.19060285125382209,0.13153341044116409
0.24323743207829709,0,N,0.8291929874827062,0.2195378765385268,1.0522672835293128
0.0918403622547313,0,N,0.1217891782402848,0.098143337713930898,0
0.73249665292985255,0.80000000000000004,N,0.67707317098334618,0.45879035745176039,0
0.1240247971029457,0.40000000000000002,N,0.46615857878178008,0.067445943568396394,0.52613364176465638
0.14927624579310539,0,Y,0.67287354414747447,0.1235462413624128,0.26306682088232819
0.28820882350782517,0.40000000000000002,N,0.96918054867843584,0.27387975847647988,0.65766705220582056
0.093018597827209296,0,N,0.16658519782291839,0.14881138652403739,0
0.1085216974650775,0,N,1.3452804630909627,0.083549515381544398,0.13153341044116409
0.83468688450282469,0,Y,1.2640876775974397,0.5202446645693114,0.13153341044116409
0.27905579348162779,0,N,1.6509199717016398,0.37256637329829878,0
0.2954270666992167,0,Y,0.38076616645238492,0.22399306208018921,0
0.15935636117764729,0.40000000000000002,N,0.36256778349694008,0.18280722751460679,0
0.27270572386995701,0.40000000000000002,N,1.0587725878437029,0.1822851325454668,0
0.16495298014691781,0,N,0.11758955140441291,0.1881922641963073,0
0.2021015074991776,0,N,2.1520754407823519,0.25452204330567818,0.52613364176465638
0.1085216974650775,0.40000000000000002,Y,0.40316417624370171,0.1338943874057533,0
0.58911778623899214,0,N,0.32057151513822119,0.41400251510908598,0.65766705220582056
0.34416261072081922,0,N,0.53615235937964512,0.58187596188140067,0.39460023132349231
0.074290853464664394,0,Y,0.79466272238775937,0.100957653352582,0.39460023132349231
0.31006199275736429,0,Y,1.2034264010792901,0.12029358970467099,0.26306682088232819
0.35058089397089659,0,Y,1.1810283912879731,0.4585927072134432,0
0.33323602609604969,0,N,0.43956094215459141,0.29170132107808072,0.26306682088232819
0.13952789674081389,0.40000000000000002,N,0.94958229011103357,0.23676134206048,0.13153341044116409
0.21704339493015501,0.40000000000000002,N,0.80259535085551748,0.22063397763373829,0
0.29501468424884941,0,Y,0.72233581576996542,0.13034787086538119,0.26306682088232819
0.035619921727965999,0.40000000000000002,N,0.72793531821779489,0.079775514604618597,0.52613364176465638
0.058235843479688097,0,N,2.2281353490320321,0.21431192965242279,0
0.15503099637868209,0,Y,0.32943739401395061,0.099088031268091806,0.26306682088232819
0.37207439130883718,0.40000000000000002,Y,0.48109058530932458,0.1935623838788896,0.39460023132349231
0.18062971450073009,0,N,0.35883478186505402,0.1693371773107962,0.52613364176465638
0.56101376721546459,0,Y,1.5776598146758745,0.36479424383269482,0.26306682088232819
0.34863370465638038,0.80000000000000004,N,0.95844816898676299,0.30404759915331531,0
0.2480495942058914,0,N,1.1651631343524571,0.1914314159698472,0.26306682088232819
0.1506808266202963,0,N,2.0862812870203591,0.21816424467471959,0.39460023132349231
0.093018597827209296,0,N,1.3998756119572977,0.2482580224509327,0.39460023132349231
1.0542107753750387,0,N,1.7750422759618534,0.27442825653405922,0
0.093018597827209296,0,N,0.2085814661816372,0.1189773882874692,0.52613364176465638
0.32034364843719848,0,N,0.92858415593167398,0.2813638406891098,0.13153341044116409
0.34971892163103119,0,Y,0.88332151114505475,0.091224311427901605,0.26306682088232819
0.71190233537090841,0,N,0.41436318113935999,0.51022894385132189,0.78920046264698474
0.18219242694422719,0,N,1.1940938969995749,0.32017041389532591,0
0.58911778623899214,0,Y,0.49555596663288343,0.29798137770687833,0.26306682088232819
0.34387115244762728,0,N,1.4689361421471909,0.32169940630494998,0
0.27905579348162779,0.80000000000000004,Y,0.73073506944170918,0.27588214185312271,0.52613364176465638
0.1240247971029457,0,N,2.1287441805830638,0.18610388431974759,0
0.71190233537090841,0.40000000000000002,Y,0.53475248376768769,0.71446399308937014,0
0.15472093438592471,1.2,N,0.75266645402904053,0.1485627947337311,0.39460023132349231
0.19355309835885701,0.40000000000000002,N,0.35556840543715362,0.19970594996575489,0
0.1567673435381233,0.80000000000000004,N,0.78393034269608652,0.1669327808079156,0
0.27905579348162779,0,N,1.2668874288213543,0.2482580224509327,0
0.8687999049459898,0.40000000000000002,N,1.2538219231097529,0.51499171791480314,0.13153341044116409
0.89917977899635648,0.40000000000000002,N,0.72653544260583747,1.1184163292125031,0.13153341044116409
0.31365251063349447,0,N,1.9364945965409284,0.33127015293924111,0
0.27270572386995701,0.40000000000000002,N,1.2220914092387207,0.20837712696821789,0.52613364176465638
0.2027402352042578,0,Y,1.6261888358903942,0.14020987190745679,0.26306682088232819
0.3117983399168055,0.40000000000000002,N,1.0583059626397171,0.16456373759294529,0.52613364176465638
0.2221346128512309,0.40000000000000002,N,0.84272511839829334,0.1011291988424423,0.65766705220582056
0.43718740978788367,0,N,0.39243179655202909,0.22488808202728619,0.26306682088232819
0.43592235685743358,0,N,1.5617945577403582,0.2492392626529335,0
0.43408678986031002,0,N,1.3140165744239165,0.44715136888971918,0.13153341044116409
0.34044806804758598,0,N,1.5865256935516041,0.59532691832633977,0.13153341044116409
0.16743347608897671,0,N,0.36023465747701122,0.095110189698214595,0
0.29145827319192241,0,N,1.8832993232865509,0.17201559908747971,0
0.74414878261767436,0,N,0.35790153145708231,0.62118300040803509,0.39460023132349231
0.19223843550956579,0,N,0.33597014686975141,0.17864538476060551,0.13153341044116409
1.1692592777876585,0,N,1.4274064989924575,0.5770858897095329,0
0.13937286574443519,1.2,N,0.6248111481369405,0.2407264295961111,0
0.65238283524120477,0,N,1.6359879651740954,0.28306952495329002,0.52613364176465638
0.41002597922233852,0,N,0.43722781613466261,0.4240001862581424,0.26306682088232819
0.35405048766985148,0,N,1.7605768946382945,0.23120356652898971,0.26306682088232819
0.1240247971029457,0,N,0.47315795684156658,0.18610388431974759,0.39460023132349231
0.021642327094463999,0.40000000000000002,N,0.85812375012982356,0.062964056598312404,0.65766705220582056
0.064220039939905299,0.40000000000000002,N,0.52168697805608621,0.15235171250977531,0.13153341044116409
0.1506808266202963,0,Y,0.26317661504797191,0.174459674808015,0.13153341044116409
0.21704339493015501,0,N,1.6187228326266216,0.39742801363377372,0.13153341044116409
0.52617520170924725,0.80000000000000004,N,0.74193407433736769,0.3347144880356529,0.13153341044116409
0.37728343278716081,0,N,1.2575549247416391,0.32701977779547281,0.65766705220582056
0.17372463392202361,0,N,1.6355213399701092,0.1966323022974325,0
0.20588116319088989,0,N,1.2449560442340235,0.37952761469183283,0.65766705220582056
0.52617520170924725,0,N,1.5916585707954474,0.3347144880356529,0.13153341044116409
0.15935636117764729,0,N,1.8165719191165863,0.13432213235547011,0.13153341044116409
0.48320060951307647,0.40000000000000002,Y,0.23564572801281169,0.35304643576208578,0.13153341044116409
0.31936075192015762,0.80000000000000004,Y,0.72700206780982313,0.1401085854834436,0.26306682088232819
0.17671053091227701,0.40000000000000002,Y,0.33083726962590798,0.19950531632761401,0
0.43408678986031002,0.80000000000000004,Y,0.53381923335971604,0.406468610119401,0.65766705220582056
0.17554469781950929,0,N,0.75499958004896917,0.16525983935680011,0.13153341044116409
0.16495298014691781,0,Y,1.729779631175234,0.1881922641963073,0
0.74811757612496854,0.80000000000000004,Y,0.8035286012634888,0.53511907565511274,0
0.54367510058047286,0,N,1.4880677755106071,0.34523843091360229,0
0.046509298913604599,0,N,0.1763843271066195,0.074226390932616904,0.26306682088232819
0.32816961313439441,0,N,1.3886766070616392,0.43163768980670381,0
0.44338864964303087,0.80000000000000004,Y,0.78346371749210086,0.29994415645086209,0.26306682088232819
0.46106528385012829,0,Y,1.3550795923746639,0.39419848332466528,0.39460023132349231
0.1240247971029457,0.40000000000000002,N,0.52961960652384432,0.18610388431974759,0
0.13952789674081389,0.40000000000000002,N,0.27157586871971567,0.20475013321760269,0
0.43408678986031002,0,N,0.49882234306078371,0.22339638211545779,0.39460023132349231
0.20154029529228679,0.40000000000000002,Y,1.2202249084227776,0.37256637329829878,0.26306682088232819
0.18541707166890381,0,N,2.075082282124701,0.18557112369623799,0
0.80926180109672075,0,N,1.7605768946382945,0.33651698362411081,0.39460023132349231
0.20154029529228679,0,N,1.2118256547510338,0.22339638211545779,0
0.2325464945680232,0,Y,2.0368190153978678,0.15813451097296491,0.52613364176465638
0.31626323261251149,0.40000000000000002,Y,0.63367702701266992,0.33378217559076018,0
0.1240247971029457,0,N,0.61781177007715404,0.1239497461885624,0.26306682088232819
0.8453871238728814,0.40000000000000002,N,0.98364593000199441,0.46811967245532199,0.65766705220582056
0.15503099637868209,0.40000000000000002,N,0.89638701685665623,0.44715136888971918,0.13153341044116409
0.1075046941288333,0.40000000000000002,N,0.43956094215459141,0.1107034509715261,0
0.1976366148034715,0,N,1.3980091111413546,0.15678347836282189,0.65766705220582056
0.34416261072081922,0,N,1.06017246345566,0.33388711667955728,0.39460023132349231
0.48933983696967231,0,Y,1.4078082404250556,0.36778413255096809,0.26306682088232819
0.54459288407903461,0.40000000000000002,Y,0.59168075865395109,0.2304073717010513,0.52613364176465638
0.357690615464823,0,N,1.492267402346479,0.1866423879879176,0.13153341044116409
0.2956255063745814,0.40000000000000002,N,0.87305575665736801,0.31392466636450028,0.52613364176465638
0.143825355960431,0.40000000000000002,N,0.77226471259644236,0.1678633777979098,0.26306682088232819
0.061541104322481603,0,N,0.57488225131046355,0.063247479581559796,0.52613364176465638
0.38874022341954551,0.40000000000000002,N,1.3597458444145218,0.2881254926344412,0.52613364176465638
0.2325464945680232,0,N,1.6812506099607143,0.2109655246552225,0.52613364176465638
0.15503099637868209,0.40000000000000002,N,0.41949605838320347,0.1115188887283271,0.39460023132349231
0.1506808266202963,0,Y,0.49322284061295452,0.066879172186897207,0.26306682088232819
0.0020464091521986,0,N,1.5538619292725999,0.046410588091756903,0.39460023132349231
0.3565712916709689,0,Y,1.7643098962701809,0.18610388431974759,0.13153341044116409
0.13937286574443519,0,Y,0.294907128919004,0.16357921565113859,0.26306682088232819
0.32181954352272357,0.40000000000000002,N,0.58748113181807904,0.30275481742472921,0
0.74414878261767436,0.80000000000000004,Y,1.0489734585600017,0.74549135125540111,0.13153341044116409
0.15503099637868209,0,N,0.43676119093067678,0.22339638211545779,0.26306682088232819
0.093018597827209296,0.80000000000000004,N,0.46755845439373739,0.16538581341435399,0.26306682088232819
0.30075703235471579,0,N,1.141831874153169,0.1187536333006949,0.13153341044116409
0.43408678986031002,0.40000000000000002,N,0.51002134795644216,0.20305504002279651,0.39460023132349231
0.077515498189341003,0,N,1.8091059158528144,0.064903266483689298,0.39460023132349231
0.50775751933945978,0,Y,1.7619767702502518,0.51803694869980532,0
0.34106819203310068,0,Y,0.92811753072768843,0.16237228125247821,0.78920046264698474
0.36408719437540749,0,Y,1.4824682730627785,0.37979813447084287,0
0.52617520170924725,0,N,1.4031419883851981,0.22302345713750071,0.26306682088232819
0.48933983696967231,0,N,1.9602924819442025,0.24997847454423999,0.13153341044116409
0.31365251063349447,0,Y,1.8576349370673344,0.2312257182726804,0.26306682088232819
0.1444888886249317,0.40000000000000002,N,1.1292329936455534,0.1504096683945659,0
0.15935636117764729,0,N,1.7997734117730988,0.2285986855579594,0
0.35580233792893068,0,Y,0.66494091567971636,0.2160280558159858,0.13153341044116409
0.3199839765255999,0.80000000000000004,N,0.44796019582633528,0.84394354543607608,0.26306682088232819
0.85670128598859752,0,N,1.6126567049748068,0.60974665927901572,0
0.58911778623899214,0,N,1.4288063746044148,0.5963213600725602,0.13153341044116409
0.15503099637868209,0,N,0.1782508279225625,0.089143390050900995,0.26306682088232819
0.091573708940959897,0,Y,0.44889344623430671,0.1175871239696451,0.39460023132349231
0.32816961313439441,0,N,1.8044396638129567,0.25375687583590578,0
0.69332962200474235,0,N,0.89825351767259931,0.4974642439508194,0.39460023132349231
0.63903156583307263,0,Y,1.4054751144051267,0.29268994519464497,0.26306682088232819
0.27905579348162779,0,N,0.33643677207373718,0.29798137770687833,0.13153341044116409
0.34044806804758598,0,Y,1.1129011115060516,0.17834704477823979,0.26306682088232819
0.87307255920618643,0,Y,0.36490090951686888,0.21711632548666021,0.26306682088232819
0.16554829917301189,0,N,1.2132255303629913,0.094203236151822897,0.13153341044116409
0.71190233537090841,0.40000000000000002,Y,0.54035198621551672,0.35705269421528329,0.39460023132349231
0.99777019083341556,0,Y,0.25011110933637049,0.4120926917119721,0.39460023132349231
0.21805109640661641,0.40000000000000002,N,1.1945605222035609,0.3324769381679103,0
0.3445408863519831,0.80000000000000004,N,0.50815484714049908,0.36099078198251028,0.13153341044116409
0.3228303456191125,0,Y,0.45869257551800768,0.2124286585137394,0.39460023132349231
0.018879674738995902,0,N,0.90571952093637143,0.029641345192955498,0.13153341044116409
0.062012398551472801,0,N,1.3275487053395041,0.049364750597141897,0
0.084113617395217694,0,N,0.28977425167516058,0.078761158664575198,0.13153341044116409
0.52617520170924725,0,N,1.7209137522995046,0.41848276120926697,0.39460023132349231
0.61826361355818449,0,N,1.7895076572854121,0.55743058040632143,0.26306682088232819
0.051296656081778302,0.40000000000000002,N,0.53288598295174472,0.077279975237125195,0.65766705220582056
0.0544282822086277,0,N,1.8828326980825651,0.1138144657226398,0.13153341044116409
0.50775751933945978,0,N,1.5421962991729561,0.71963519458871006,0.26306682088232819
0.16495298014691781,0,N,0.44562706980640637,0.1469467616342518,0
0.1444888886249317,0,N,2.1380766846627792,0.2107169328649163,0
0.040308059058457302,0,Y,0.95191541613096242,0.037762607022922903,0.13153341044116409
0.0124024797102945,0,N,1.5216647901975826,0.1040603891691851,0.13153341044116409
1.0270307410899282,0,N,1.1460315009890409,0.6359148049822656,0.39460023132349231
0.56912498894599728,0.40000000000000002,N,0.76106570770078419,0.41210067230650038,0
0.27905579348162779,0,N,0.67427341975943178,0.18610388431974759,0.9207338730881488
0.20705939876336779,0.40000000000000002,Y,0.88752113798092691,0.1141741145713817,0.52613364176465638
0.38726122771409283,0.80000000000000004,Y,0.850657746866051,0.16733084092938699,0.52613364176465638
0.18603719565441859,0.40000000000000002,N,1.2099591539350909,0.2084793829971737,0
0.79665778109113394,0,N,0.76666521014861333,0.49737504029609197,0
0.50775751933945978,0,N,0.61174564242533902,0.19902431769104489,0.26306682088232819
0.1240247971029457,0.80000000000000004,Y,0.68593904985907594,0.092872639830472004,0.13153341044116409
1.0072301822324428,0,N,0.84179186799032168,0.71320246247393693,0.13153341044116409
0.43408678986031002,0.40000000000000002,N,1.4022087379772263,0.50817546975269889,0.26306682088232819
0.1240247971029457,0.40000000000000002,N,0.28464137443131721,0.092872639830472004,0.52613364176465638
0.40616880803243688,0,Y,0.82779311187074878,0.42028883687751328,0.52613364176465638
0.13425684286393871,0,N,2.177273201797584,0.18894519972680271,0
0.32034364843719848,0.40000000000000002,N,0.76573195974064168,0.24111777706797929,0.52613364176465638
0.1240247971029457,0,N,2.2314017254599325,0.1239497461885624,0.13153341044116409
0.16495298014691781,0.80000000000000004,Y,0.33643677207373718,0.093916829768751903,0.26306682088232819
0.43718740978788367,0.40000000000000002,Y,1.2290907872985073,0.22488808202728619,0.13153341044116409
0.79633841723859389,0.40000000000000002,Y,0.54221848703145981,0.1240267924890083,0.52613364176465638
0.92663886907494863,0.40000000000000002,N,0.74940007760114014,0.46036186330887169,0.26306682088232819
0.59221840616656585,0,N,1.3074838215681162,0.49936086580371358,0
0.50775751933945978,0,Y,0.90618614614035742,0.32363861619032702,0.13153341044116409
0.31006199275736429,0.80000000000000004,N,0.98644568122590925,0.39032468782363799,0
0.1918167511994158,0.40000000000000002,Y,0.37796641522847041,0.1187519924307919,0.13153341044116409
0.25633445065236821,0,N,1.3928762338975111,0.5756364794902048,0
0.85670128598859752,0.40000000000000002,N,0.75733270606889791,0.35553615749992301,0.65766705220582056
0.074290853464664394,0.40000000000000002,N,0.40456405185565891,0.100957653352582,0
0.51389674679605557,0,Y,0.28884100126718909,0.29092063992922529,0.13153341044116409
0.50775751933945978,0,Y,0.95331529174291962,0.18478268570784109,0.13153341044116409
0.81168028464022823,0,N,1.6947827408763017,0.67533170720740632,0
0.58911778623899214,0,N,0.94538266327516163,0.5963213600725602,0.39460023132349231
0.8602514958056694,0,N,0.88098838512512612,0.85720475765223059,0.52613364176465638
0.2325464945680232,0,Y,0.95424854215089139,0.14707683786656331,0.65766705220582056
0.47749546884634098,0,N,1.803506413404985,0.69463795873125,0.26306682088232819
0.1444888886249317,0,N,0.750799953213097,0.14035844521867491,0.39460023132349231
0.48933983696967231,0,N,1.5907253203874756,0.4100300436588914,0
0.66278851571814201,0,Y,1.1791618904720309,0.37051110915978158,0.26306682088232819
0.20154029529228679,0.40000000000000002,Y,0.46429207796583699,0.092872639830472004,0.26306682088232819
0.062012398551472801,0,Y,0.82406011023886239,0.027610768687979102,0.39460023132349231
0.13425684286393871,0,N,2.148809064354452,0.17248399285979391,0.13153341044116409
0.85670128598859752,0,N,1.6602524757813548,0.42671508009767001,0.9207338730881488
0.15503099637868209,0,N,0.96684742265850676,0.1275014090936302,0.52613364176465638
0.9490222443321028,0,Y,1.2486890458659092,0.67319715921857548,0.13153341044116409
0.13952789674081389,0,Y,1.2958181914684721,0.1363805290638021,0.26306682088232819
0.22621502867591781,0.40000000000000002,N,0.64954228394818614,0.2058888223452969,0.78920046264698474
0.50668470484451933,0,N,2.055950648761284,0.58755426676576672,0.13153341044116409
0.31006199275736429,0,N,0.2305128507689683,0.32781537594344651,0
0.93969868020988878,0,Y,1.4017421127732406,0.46664490333749292,0
0.13952789674081389,0,N,0.58514800579815041,0.16372838564232139,0
0.87981950816858656,1.2,N,0.6392765294604994,0.43783719464026261,0.39460023132349231
1.0542107753750387,0.80000000000000004,Y,0.51095459836441381,0.70517510315341914,0.13153341044116409
0.15503099637868209,0.40000000000000002,N,0.57488225131046355,0.19421097500055259,0
0.48933983696967231,0,N,1.1469647513970125,0.46322861219942352,0
0.4148257388702225,0,Y,1.3037508199362298,0.2818631872345943,0
0.8602514958056694,0,Y,1.5165319129537391,0.3894429440057563,0.26306682088232819
0.21074603585725291,0,N,1.461003513679433,0.1288706404426975,0.13153341044116409
0.094407675554762205,0,N,0.99717806091758165,0.085836067591390605,0.13153341044116409
0.34106819203310068,0.40000000000000002,Y,1.1567638806807137,0.22339638211545779,0
0.43408678986031002,0,N,1.0163096942809982,0.259821605582431,0.52613364176465638
0.27905579348162779,0,Y,1.712514498627761,0.41400251510908598,0.52613364176465638
0.86735501605974064,0,N,1.2430895434180804,1.0801393094749865,0.26306682088232819
0.077515498189341003,0.80000000000000004,N,0.51095459836441381,0.20044717565194239,0.13153341044116409
0.54459288407903461,0,N,0.5772153773303923,0.46117334806090621,0.52613364176465638
0.16495298014691781,0.40000000000000002,Y,0.71113681087430725,0.1174856883756408,0
0.85670128598859752,0,N,1.1352991212973682,0.85378876485414346,0.13153341044116409
1.0072301822324428,0.40000000000000002,Y,1.5711270618200739,0.64001668139981149,0.26306682088232819
0.67475690863857618,0,N,1.9056973330778679,0.6787228632019614,0
0.32816961313439441,0.40000000000000002,N,1.0559728366197882,0.151219064766724,0.26306682088232819
0.89220958539917095,0,N,1.7993067865691132,0.69363613307046601,0
0.37575172654293948,0.80000000000000004,Y,0.92625102991174524,0.39102168460743991,0.26306682088232819
0.093018597827209296,0,N,0.57254912529053481,0.063118000029213098,0.13153341044116409
0.1444888886249317,0,Y,1.6896498636324584,0.2810754205111578,0.39460023132349231
0.45188434824458268,0.80000000000000004,Y,0.88938763879686977,0.46427608387750929,0
0.41796356623692699,0,N,1.4414052551120309,0.1346402373616675,0.13153341044116409
0.40261549759543752,0,N,1.4283397494004293,0.1892906774263822,0.39460023132349231
0.57974771281786464,0,N,1.1488312522129556,0.26676144108223032,0.39460023132349231
0.093018597827209296,0.40000000000000002,Y,0.4110968047114596,0.099088031268091806,0.13153341044116409
0.34106819203310068,0,Y,1.186161268531817,0.17864538476060551,0.13153341044116409
0.17731515179815391,0,Y,0.38076616645238492,0.1040401766353798,0.26306682088232819
0.59662128646372037,0.40000000000000002,Y,0.64347615629637112,0.33514126338042699,0.65766705220582056
0.081657926412579407,0,N,1.9518932282724584,0.089978742001524906,0.78920046264698474
0.27905579348162779,0,N,0.36676741033281191,0.29798137770687833,0.26306682088232819
0.77515498189341081,0.40000000000000002,N,0.82032710860697633,1.1403531189458609,0.13153341044116409
0.67319419619507903,0.40000000000000002,N,1.1646965091484716,0.33843031251601752,0.39460023132349231
0.25751888746470131,0,N,0.26877611749580099,0.15387324641984029,0.13153341044116409
0.13359951143929311,0.80000000000000004,Y,0.68220604822718967,0.082132400465307495,0
0.31006199275736429,0.80000000000000004,N,0.29210737769508938,0.18196024030467059,0.52613364176465638
0.31936075192015762,0,N,1.3084170719760873,0.3660774786818452,0.52613364176465638
0.71934382319708523,0.40000000000000002,N,0.82452673544284838,0.3004675193649271,0.39460023132349231
0.37759349477991822,0.40000000000000002,Y,0.252910860560285,0.6217179985814123,0.52613364176465638
0.56332062844157949,0,Y,1.4666030161272623,0.71446399308937014,0.26306682088232819
0.53357638147636555,0,Y,1.0242423227487565,0.45234002327802758,0
0.1444888886249317,0,Y,0.090991914777224306,0.1504096683945659,0
0.031006199275736401,0.80000000000000004,N,0.3210381403422069,0.092872639830472004,0.13153341044116409
0.18541707166890381,0,Y,1.7727091499419243,0.5202446645693114,0.13153341044116409
0.60462088587686036,0,Y,1.0368412032563716,0.56593491077364633,0.26306682088232819
0.36495536795512801,0,Y,1.1805617660839876,0.23776145226636539,0.39460023132349231
0.31006199275736429,0,Y,0.43629456572669117,0.34148926694020842,0.26306682088232819
0.23014041350422601,0,N,0.28930762647117481,0.1566875620584913,0.13153341044116409
0.16495298014691781,0,N,1.691982989652387,0.3138928185713829,0.39460023132349231
0.20154029529228679,0.80000000000000004,Y,0.59681363589779446,0.1594663752392409,0.39460023132349231
0.48933983696967231,0,N,1.4722025185750911,0.35726578354768801,0.39460023132349231
0.14213241747997579,0,Y,0.41762955756726039,0.27729649712452281,0.39460023132349231
0.89917977899635648,0,N,0.70273755720256348,0.53239135319634334,0.13153341044116409
0.018572713366166099,0.80000000000000004,N,0.98877880724583778,0.079149000641650605,0.13153341044116409
0.1506808266202963,0,N,1.7587103938223514,0.167735912040444,0.26306682088232819
0.68270999875280247,1.2,N,0.78066396626818624,0.43985539003597091,0.26306682088232819
0.3445408863519831,0,N,1.2304906629104644,0.12869476902309299,0.26306682088232819
0.31006199275736429,0,N,0.36863391114875488,0.32781537594344651,0.26306682088232819
0.51389674679605557,0,N,1.0172429446889697,0.26179273784592111,0
0.062012398551472801,0.40000000000000002,N,0.75173320362106888,0.067445943568396394,0.13153341044116409
0.2506541149450533,0.40000000000000002,Y,0.44329394378647757,0.27065343532218178,0.13153341044116409
0.4709221545998849,0,N,1.8809661972666225,0.65228024471493518,0
0.093018597827209296,0,Y,0.27810862157551641,0.17513548945306889,0.26306682088232819
0.077515498189341003,0.40000000000000002,N,1.0172429446889697,0.086657248392852201,0.39460023132349231
0.16495298014691781,0,N,1.7596436442303232,0.2353299814100851,0.13153341044116409
0.18541707166890381,0,N,1.9761577388797185,0.4907765803211146,0.26306682088232819
0.89220958539917095,0,Y,1.2701538052492547,1.1100329757080278,0.26306682088232819
1.8293657572684487,0,Y,1.0069771902012827,0.28383066483330049,0
0.85670128598859752,0.80000000000000004,Y,1.3000178183043436,0.92806244267396543,0.13153341044116409
0.18603719565441859,0,N,1.1045018578343078,0.1040603891691851,0.13153341044116409
0.29501468424884941,0,Y,0.72700206780982313,0.1564891659702182,0.65766705220582056
0.989097756895992,0,Y,0.67800642139131784,0.27229102348538697,0.26306682088232819
0.56741344674597671,0.80000000000000004,N,0.6500089091521718,0.71938660279840405,0.26306682088232819
0.1240247971029457,0,Y,2.1040130447718184,0.13776176859715961,0
0.40261549759543752,0.80000000000000004,N,1.2332904141343792,0.80200380573505559,0
0.071221239736366501,0,N,1.7769087767777962,0.12259476057365309,0.13153341044116409
0.43718740978788367,0.40000000000000002,N,0.52635323009594392,0.32142239763132352,0.26306682088232819
0.19769552658209541,0,N,1.8576349370673344,0.1218944820500452,0.52613364176465638
0.43718740978788367,0.40000000000000002,N,0.53475248376768769,0.53594301610141115,0
0.27905579348162779,0,Y,0.31683851350633491,0.2482580224509327,0
0.81505065850150071,0,Y,0.60194651314163783,0.58112093797102871,0.52613364176465638
0.310303841111715,0,N,0.47875745928939561,0.2048955739590059,0
0.38342266024375671,0,N,1.3676784728822799,0.38306562854270743,0.26306682088232819
0.27905579348162779,0,N,0.33177052003387952,0.2127413934002543,0
0.3445408863519831,0,N,1.002777563365411,0.18031608866185339,0.13153341044116409
0.58911778623899214,0,N,0.51095459836441381,0.156662426914977,0.13153341044116409
0.47439484891876738,0.40000000000000002,Y,1.1819616416959449,0.4048865131929158,0.13153341044116409
0.18603719565441859,0,N,0.3289707688099649,0.090394777106933805,0.13153341044116409
0.3445408863519831,0,Y,1.695715991284273,0.36099078198251028,0.26306682088232819
0.21590236679680791,0,Y,0.67427341975943178,0.098630601490129602,0.13153341044116409
0.0040928183043972,0,Y,2.1530086911903235,0.055928230209186899,0.26306682088232819
0.1444888886249317,0,N,0.97291355031032201,0.14035844521867491,0
0.43592235685743358,0.80000000000000004,N,0.53241935774775873,0.56123657814635597,0.39460023132349231
0.3923834518344444,0.80000000000000004,Y,0.65140878476412922,0.40702464126153509,0.26306682088232819
0.23361310782310851,0,Y,1.0531730853958736,0.26486563966428761,0.52613364176465638
0.4928094306686272,0,N,1.4978669047943085,0.54748116574941275,0
0.52617520170924725,0,Y,1.9752244884717469,0.37194485653003539,0.39460023132349231
0.71190233537090841,0.40000000000000002,N,0.36163453308896848,0.71446399308937014,0.26306682088232819
0.66278851571814201,0,N,1.3924096086935251,0.37051110915978158,0.13153341044116409
1.2261091441597212,0.80000000000000004,Y,0.68920542628697634,0.52101624634870458,0.26306682088232819
0.53385233664991949,0.80000000000000004,N,0.5170207260162285,0.67902120318432713,0.26306682088232819
0.34106819203310068,0,N,1.7288463807672625,0.35764937418001469,0.52613364176465638
0.46948966819334581,0,N,0.83619236554249243,0.21853888510757541,0
0.36408719437540749,0.80000000000000004,Y,0.51748735122021416,0.31643870281090042,0.26306682088232819
0.92088411848937202,0,N,2.0540841479453418,0.41596126626330782,0.13153341044116409
0.33670561979500457,0.40000000000000002,N,0.7321349450536665,0.22077285489552961,0
0.37207439130883718,0,N,1.5580615561084721,0.38748337241658293,0.26306682088232819
0.16086016184252061,0,N,2.1324771822149491,0.1534854044427649,0.13153341044116409
0.090190832453262093,0,Y,1.1152342375259805,0.0968206474021127,0.78920046264698474
0.17554469781950929,0,N,1.8707004427789355,0.2480690986570997,0
0.81304455740836068,0,Y,1.5715936870240594,1.0148177703360204,0
1.0542107753750387,0,N,1.4138743680768704,0.57974693318224357,0.13153341044116409
0.4709221545998849,0,N,1.707381621383917,0.24111777706797929,0.13153341044116409
0.12693937983486489,0.40000000000000002,N,0.15911919455914611,0.15161578235827469,0
1.1646610584350667,0,Y,0.97851305275815104,0.35916158496563072,0.26306682088232819
0.16495298014691781,0,N,1.0391743292763007,0.3138928185713829,0.13153341044116409
0.1240247971029457,0,Y,1.3798107281859096,0.052916413502209797,0.26306682088232819
0.31626323261251149,0,Y,0.8823882607370831,0.23831338123374191,0.78920046264698474
0.43718740978788367,0.80000000000000004,Y,0.47175808122960922,0.22488808202728619,0.52613364176465638
0.098326859143215303,0,N,0.26597636627188648,0.15519586214666289,0.13153341044116409
0.2290117878505892,0.40000000000000002,N,0.96031466980270597,0.1222825477821074,0.26306682088232819
0.73645924519729167,0,Y,1.6000578244671912,0.27113077929396689,0.13153341044116409
0.63823160589175865,0,Y,0.98411255520597996,0.26794846128706779,0.13153341044116409
0.39616620814608428,0,N,0.80866147850733217,0.2051528921937964,0.26306682088232819
0.66278851571814201,0,N,1.1189672391578664,0.41686986067960258,0
0.29951988500361387,0,Y,0.083525911513451997,0.17632497096276081,0.13153341044116409
0.42689955286819431,0,N,1.945827100620644,0.2444160747430231,0.52613364176465638
0.21117702202718561,0,Y,0.252910860560285,0.16608952284775899,0.26306682088232819
0.18541707166890381,0.40000000000000002,Y,0.5996133871217092,0.25994302995525381,0.13153341044116409
0.29094667090387277,1.2,Y,0.72980181903373775,0.171742095908646,0
0.51442385218374309,0.40000000000000002,Y,0.55528399274306139,0.1189163777610754,0.65766705220582056
0.37191315907260331,0,N,1.8268376736042733,0.21502294841539579,0
0.1058799692867847,0,N,1.4838681486747354,0.13684049473161439,0.13153341044116409
0.1444888886249317,0,Y,1.7031819945480453,0.1685018253601723,0
0.71111787852923225,0,N,1.5090659096899666,1.0497410757467691,0
0.099002794287426393,0,N,0.65887478802790134,0.16001822962162179,0.26306682088232819
0.86817357972062004,0,N,1.3238157037076177,0.61763133750296728,0
0.062012398551472801,0.40000000000000002,N,0.87865525910519704,0.14881138652403739,0
0.43718740978788367,0,N,0.44749357062234951,0.4501347687133761,0.39460023132349231
0.74414878261767436,0.80000000000000004,Y,0.69433830353081971,0.53239135319634334,0.39460023132349231
0.1506808266202963,0,N,1.7801751532056969,0.21816424467471959,0.26306682088232819
0.035099017580133597,0,Y,1.9098969599137401,0.10930707068406351,0.13153341044116409
0.41002597922233852,0,N,0.19178295883814969,0.53008988398737877,0.13153341044116409
0.32012350442234072,0,N,0.66867391731160231,0.35157382960912881,0.26306682088232819
0.48840965099140021,0,N,1.8776998208387219,0.83260662610618019,0.13153341044116409
0.093018597827209296,0,N,0.090058664369252805,0.1189773882874692,0
0.41996036547028448,0.40000000000000002,N,0.82452673544284838,0.54203840028112438,0
0.1240247971029457,0,Y,0.1012576692649111,0.067445943568396394,0.26306682088232819
0.4709221545998849,0,Y,0.99717806091758165,0.26794846128706779,0.13153341044116409
0.16495298014691781,0,N,0.84319174360227889,0.1118740624773335,0.13153341044116409
0.43408678986031002,0,N,1.4162074940967997,0.74549135125540111,0.26306682088232819
0.27905579348162779,0.80000000000000004,N,0.58281487977822166,0.18610388431974759,0.26306682088232819
0.51620050740224277,0,N,2.0340192641739532,0.46974793749407839,0.13153341044116409
1.2712541703051936,0,N,0.71346993689423599,0.62615535830912838,0.13153341044116409
0.48320060951307647,0.40000000000000002,Y,0.72466894178989438,0.30887078706322568,0
0.42947306740808039,0,N,1.8455026817637039,0.31612044863471178,0.26306682088232819
0.1844372757717905,0.40000000000000002,N,0.61594526926121107,0.27240267722378741,0
0.046509298913604599,0,N,1.8128389174847008,0.092872639830472004,0.13153341044116409
0.55123751258382503,0.40000000000000002,N,1.1338992456854109,0.2330713239885901,0.13153341044116409
0.73645924519729167,0,N,1.3149498248318885,0.3764022050365699,0
0.062012398551472801,0,N,1.9845569925514623,0.074226390932616904,0
0.1093898710447981,0,N,0.43442806491074798,0.1926247758993099,0.39460023132349231
1.0542107753750387,0.40000000000000002,Y,0.45029332184626403,0.52173636448113969,0.39460023132349231
0.17554469781950929,0,Y,1.8469025573756608,0.41368754267270341,0
1.0263051960268761,0,N,0.41016355430348811,0.84742420342534086,0
0.34106819203310068,0,N,2.0022887503029212,0.29798137770687833,0.13153341044116409
0.051625321794101099,0,N,1.847835807783633,0.13215409570361869,0.39460023132349231
0.3224644724676588,0,N,1.1483646270089696,0.13045199151922679,0.26306682088232819
0.143825355960431,0.80000000000000004,Y,0.32477114197409301,0.1678633777979098,0.26306682088232819
0.49627902436758209,0,N,2.0400853918257686,0.3016360424908579,0.39460023132349231
0.062012398551472801,0.80000000000000004,N,0.24544485729651269,0.1115188887283271,0.26306682088232819
0.31449587925379457,0,Y,1.7470447637227071,0.53583531536777718,0.78920046264698474
0.2997679345978197,0,N,1.3256822045235608,0.34558607157805388,0.13153341044116409
0.12871913567329221,0.40000000000000002,N,0.37609991441252721,0.127713752576079,0.39460023132349231
0.1444888886249317,0,N,1.5505955528447,0.14035844521867491,0.65766705220582056
0.40308059058457357,0.80000000000000004,Y,0.9948449348976528,0.1736730268595123,0
0.062012398551472801,0,N,0.060661276518149503,0.14881138652403739,0
0.58911778623899214,0.40000000000000002,Y,0.67893967179928916,0.16538581341435399,0
0.52988974438248038,0,N,0.3014398817748048,0.67425522196603538,0
0.1444888886249317,0,Y,1.5006666560182229,0.12025599886689289,0.13153341044116409
0.17554469781950929,0,N,1.7554440173944512,0.16525983935680011,0.39460023132349231
0.16495298014691781,0.80000000000000004,N,0.38776554451217138,0.2045879854371869,0
0.52617520170924725,0.40000000000000002,N,0.40689717787558771,0.53575834365232677,0.26306682088232819
0.71727260908546597,0,Y,0.52821973091188701,0.3996357295032798,0.39460023132349231
0.74414878261767436,0,Y,1.0737045943712471,0.23271950656438539,0.13153341044116409
0.15503099637868209,0,Y,1.3177495760558029,0.1115188887283271,0.26306682088232819
0.74414878261767436,0,Y,1.7568438930064083,1.0355441201759248,0.65766705220582056
0.63497595496780634,0.40000000000000002,N,0.63647677823658466,0.5336451269722351,0
0.43408678986031002,0.80000000000000004,Y,1.1754288888401443,0.44715136888971918,0.13153341044116409
0.046509298913604599,0,Y,2.0111546291786517,0.041077537151983597,0
0.034106819203309997,0.40000000000000002,N,0.80586172728341787,0.1040603891691851,0.39460023132349231
0.66278851571814201,0.80000000000000004,N,0.4292951876669045,0.37051110915978158,0
0.1240247971029457,0.80000000000000004,Y,0.850657746866051,0.2190089943347881,0.26306682088232819
0.58911778623899214,0,Y,1.4507377591917461,0.4258413914593121,0
0.58911778623899214,0,Y,1.4997334056102516,0.4968747241456648,0.13153341044116409
0.049721541158570901,0.40000000000000002,N,0.95238204133494797,0.12910103349407939,0.26306682088232819
0.43718740978788367,0.80000000000000004,N,0.46989158041366619,0.32142239763132352,0.13153341044116409
0.43408678986031002,0,Y,1.512798911321853,0.44715136888971918,0.52613364176465638
0.062012398551472801,0,N,0.42649543644298998,0.1239497461885624,0.26306682088232819
0.15472093438592471,0,N,2.0993467927319607,0.22642520420142981,0.13153341044116409
0.51134803721559008,0.40000000000000002,Y,0.98831218204185201,0.4345166706365326,0
0.27905579348162779,0.40000000000000002,N,0.21698071985338099,0.14036776834312381,0.65766705220582056
0.52018480400917488,0.40000000000000002,N,1.0676384667194323,0.66258267015597805,0.39460023132349231
0.27905579348162779,0.80000000000000004,N,0.71720293852612205,0.29798137770687833,0.13153341044116409
0.083930680819490899,0,N,0.7004044311826344,0.110233043404331,0
0.3228303456191125,0,N,1.4904009015305359,0.30362321052840019,0.13153341044116409
0.19355309835885701,0,N,1.1217669903817811,0.3597576682503974,0.39460023132349231
0.15503099637868209,0.40000000000000002,N,0.50815484714049908,0.29798137770687833,0
0.27905579348162779,0,N,1.5701938114121019,0.29798137770687833,0.78920046264698474
0.2821564134092015,0,N,0.65700828721195825,0.30096477753053508,0.13153341044116409
0.27905579348162779,0,N,0.10825704732469769,0.37256637329829878,0.13153341044116409
0.28835765326434881,0,N,1.4484046331718172,0.3069315771778488,0
0.19432205210089529,0.80000000000000004,N,0.58561463100213595,0.13514741533168911,0.39460023132349231
0.35580233792893068,0.40000000000000002,N,1.2528886727017816,0.23225707959171851,0
0.52988974438248038,0,N,0.37516666400455573,0.36429750776205588,0.13153341044116409
0.62012398551472858,0.80000000000000004,Y,0.56368324641480505,0.44715136888971918,0.26306682088232819
0.1175755076535925,0,N,2.1208115521153057,0.23791561945225281,0
0.48933983696967231,0.80000000000000004,Y,1.1436983749691121,0.2604091861777002,0.39460023132349231
0.1240247971029457,0,N,0.66867391731160231,0.20682195522514121,0.39460023132349231
0.3117983399168055,0,N,1.202026525467333,0.1265047297975421,0.13153341044116409
0.4928094306686272,0.40000000000000002,Y,0.70180430679459183,0.41965188101516249,0.52613364176465638
0.4709221545998849,0,N,2.0419518926417117,0.40210203155250129,0
0.69332962200474235,0,Y,0.85905700053779477,0.69659342814566583,0
0.60624561071890892,0,Y,1.6518532221096112,0.51060828313889972,0
0.81505065850150071,0,Y,1.5141987869338105,0.50843599514229965,0.65766705220582056
0.27905579348162779,0,Y,1.1301662440535247,0.14881138652403739,0.13153341044116409
0.27905579348162779,0,N,0.29910675575487589,0.27588214185312271,0.39460023132349231
0.081310656980691204,0,Y,0.97431342592227921,0.13472973935637719,0.52613364176465638
0.16086016184252061,0,Y,0.59448050987786571,0.080611910745180801,0.13153341044116409
0.74414878261767436,0,N,1.7176473758716042,0.93195384023395222,0
0.024711940822761898,0,N,1.1646965091484716,0.11133242623934859,0.39460023132349231
0.70310587663638202,0,N,1.3037508199362298,0.70600008778965584,0.13153341044116409
0.15503099637868209,0.40000000000000002,Y,0.47175808122960922,0.17864538476060551,0.26306682088232819
0.0086569308377855998,0,Y,2.166074196901925,0.066361030222523598,0.39460023132349231
0.33589635799390788,0,N,1.373277975330109,0.25180685112616819,0
0.85670128598859752,0.80000000000000004,N,0.86232337696569517,0.4741676951628348,0.39460023132349231
0.2506541149450533,0,Y,0.8935872656327416,0.096431388310121005,0.13153341044116409
0.63124900981486276,0,N,1.568327310596159,0.51352716694137002,0.26306682088232819
0.50775751933945978,0,N,1.5216647901975826,0.32363861619032702,0.13153341044116409
0.13952789674081389,0.40000000000000002,N,0.4096969290995025,0.1363805290638021,0.26306682088232819
0.66278851571814201,0,N,0.85112437207003711,0.83409832601800871,0
0.1444888886249317,0,N,1.0433739561121724,0.35143398274239479,0.13153341044116409
0.40308059058457357,0,N,1.3919429834895394,0.34770473296282378,0.52613364176465638
0.26943146922643929,0,N,1.8025731629970136,0.2061267484812335,0.52613364176465638
0.3445408863519831,0,Y,1.0648387154955177,0.30076585934729277,0
0.33579403753629788,0,N,1.4582037624555184,0.19571542894662711,0.39460023132349231
0.70483292193604052,1.2,N,0.56274999600683373,0.2208977847631452,0.13153341044116409
0.85670128598859752,0.40000000000000002,N,0.51095459836441381,0.85378876485414346,0.26306682088232819
0.27905579348162779,0,N,1.5435961747849134,0.28650677447512057,0
0.48765309972907223,0,N,1.8245045475843444,0.1915841660408184,0.26306682088232819
0.58911778623899214,0,N,2.0041552511188643,0.5963213600725602,0
0.59340904421875407,0,Y,0.68173942302320389,0.24997847454423999,0.52613364176465638
0.184499288170342,0,N,1.765709771882138,0.34523843091360229,0
0.21704339493015501,0,N,1.2211581588307494,0.14881138652403739,0.39460023132349231
0.74414878261767436,0,N,1.261754551577511,0.93195384023395222,0
0.28252848780051038,0,N,0.15211981649935949,0.37674313305141832,0.13153341044116409
0.6399059406526485,1.2,Y,1.1077682342622082,0.4031089289929855,0.52613364176465638
0.43408678986031002,0,N,0.75173320362106888,0.27933512880902323,0.13153341044116409
0.65113018479046492,0,Y,1.2384232913782225,0.40985887109400898,0.13153341044116409
0.27905579348162779,0,N,2.0008888746909643,0.29798137770687833,0.39460023132349231
0.2821564134092015,0.40000000000000002,N,0.28884100126718909,0.41814608453916741,0.13153341044116409
0.73484692283495334,0,Y,1.7288463807672625,0.40903015720799268,0
0.15472093438592471,0,Y,1.7960404101412131,0.11133242623934859,0.26306682088232819
0.34364170657298682,0,N,1.0088436910172256,0.3601255960336498,0.26306682088232819
0.068405876842129704,0,N,1.9756911136757325,0.091616180994738894,0
0.2027402352042578,0.40000000000000002,N,0.3928984217560148,0.3744906661845574,0
0.50775751933945978,0.80000000000000004,Y,0.81192785493523256,0.32363861619032702,0
0.15503099637868209,0,Y,0.87025600543345327,0.074226390932616904,0
0.098847763291047705,0,N,0.80586172728341787,0.23991979286878989,0.26306682088232819
0.45250447223009738,0,N,0.34250289972555209,0.21111021954666989,0
0.48059608877391458,1.2,N,0.39149854614405749,0.61496760897041525,0.26306682088232819
0.1240247971029457,0,N,0.394764922571958,0.10619135707822749,0.13153341044116409
0.27905579348162779,0.40000000000000002,N,0.92765090552370277,0.27588214185312271,0.52613364176465638
0.15503099637868209,0,Y,1.3620789704344505,0.17864538476060551,0
0.2506541149450533,0,Y,2.0237535096862667,0.27065343532218178,0
0.20464091521986039,0,Y,0.5076882219365132,0.14135288696489531,0.52613364176465638
0.69747825146783582,0,N,1.4712692681671198,0.43773128394652278,0.13153341044116409
0.2334053662879611,0,N,1.6429873432338815,0.254056782103179,0.65766705220582056
0.11481285529812441,0,Y,0.30330638259074783,0.075894857283997003,0.39460023132349231
0.1713836658767055,0,N,2.0186206324424232,0.32420546215682178,0.13153341044116409
0.54459288407903461,0,N,1.1320327448694678,0.55347973860484834,0.26306682088232819
0.8433686203000309,0,Y,0.73120169464569518,0.6005833704756407,0
0.62012398551472858,0,N,1.869300567166978,1.2044759280356816,0.26306682088232819
0.89917977899635648,0,N,1.97709098928769,0.55902886227685,0
0.1271254170305193,0.40000000000000002,N,0.93651678439943198,0.075718090844445293,0.26306682088232819
0.40308059058457357,0,N,1.5160652877497534,0.57974693318224357,0
0.58911778623899214,0,N,1.3186828264637742,0.33113023148751158,0.65766705220582056
0.7241807902841001,0,Y,1.6369212155820667,0.25915459196685697,0.39460023132349231
0.093018597827209296,0,N,1.6891832384284724,0.19853474177998279,0.39460023132349231
0.1085216974650775,0,Y,0.30097325657081891,0.22339638211545779,0.26306682088232819
0.44512499680247208,0,Y,0.2258465987291107,0.28597319341665961,0
0.21704339493015501,0,Y,0.49928896826476948,0.14881138652403739,0.65766705220582056
0.16052219427041509,0,N,1.2057595270992187,0.0917851905947491,0
0.20154029529228679,0,N,1.5603946821284009,0.22339638211545779,0
0.039191835884530797,0,N,1.7750422759618534,0.1122149904921818,0
2.139427750025813,0,N,0.71253668648626467,0.57974693318224357,0
0.1361482210197586,0.40000000000000002,N,0.51048797316042771,0.1001633231495333,0
0.27905579348162779,0,N,0.048995646418505401,0.2482580224509327,0.52613364176465638
1.2150709372175592,0.40000000000000002,Y,1.625722210686408,0.42784452068591089,0
0.074290853464664394,0,N,1.9686917356159459,0.15794804848398639,0
0.4709221545998849,0,Y,1.6392543416019956,0.30148687249967498,0.26306682088232819
0.31380134039001811,0.40000000000000002,Y,0.43629456572669117,0.20699887083468399,0.52613364176465638
1.1831345519635508,0,N,0.95658166817082002,0.3647163025123018,0.39460023132349231
0.3117983399168055,0.40000000000000002,Y,0.84505824441822197,0.14431010745509951,0.13153341044116409
0.33707459356638581,0,N,2.1740068253696831,0.1767240752741705,0.13153341044116409
0.17467652423978869,0,N,1.4731357689830629,0.27451194089911279,0.13153341044116409
0.33707459356638581,0,N,1.1096347350781512,0.19639989545116959,0.13153341044116409
0.21704339493015501,0,N,2.0298196373380808,0.37256637329829878,0
0.4960991884117828,0,N,1.5006666560182229,0.2109655246552225,0
0.50775751933945978,0,N,1.2034264010792901,0.51803694869980532,0.78920046264698474
0.066973390435590599,0,N,2.0368190153978678,0.1469467616342518,0
0.4147389215122505,0,N,1.8958982037941667,0.35705269421528329,0.52613364176465638
1.519303764511085,0,N,1.6695849798610705,0.62118300040803509,0
0.52988974438248038,0,N,1.8464359321716757,0.67425522196603538,0.26306682088232819
0.61826361355818449,0.80000000000000004,Y,1.2846191865728136,0.4458727583102956,0.39460023132349231
0.093018597827209296,0,N,0.62061152130106845,0.084881379647820401,0
0.20588116319088989,0,N,1.5062661584660522,0.15792731385521189,0.65766705220582056
0.48933983696967231,0,Y,1.7703760239219957,0.27779368070513533,0
0.52617520170924725,0,N,1.7750422759618534,0.58237717305177505,0.26306682088232819
0.40120471552839149,0,Y,1.3084170719760873,0.51948016836449928,0
0.37387895210668498,0,N,1.5650609341682589,0.2779115995831653,0
0.0062012398551472003,0,N,1.8618345639032059,0.081006838296837302,0
0.1986722218592811,0,N,0.99717806091758165,0.36796694037516259,0
0.58928521971508119,0,Y,0.11432317497651261,0.3726670630423472,0.13153341044116409
0.26765791462786709,0,N,0.75359970443701174,0.34175210446467258,0.26306682088232819
0.79901115161616232,0,Y,1.9514266030684728,0.29943048958622398,0.39460023132349231
0.086569308377856105,0,N,1.9584259811282596,0.1567671442487874,0
0.15503099637868209,0.80000000000000004,N,0.54735136427530318,0.22339638211545779,0.39460023132349231
0.15503099637868209,0.80000000000000004,N,0.70180430679459183,0.23517297999436509,0
0.26296357605752058,0.40000000000000002,Y,0.24404498168455549,0.28249753262209942,0.13153341044116409
0.45029062960180988,0,N,2.0349525145819252,0.3855590795303242,0.39460023132349231
0.41002597922233852,0,Y,0.13578793435985781,0.30275481742472921,0.13153341044116409
0.22634525471287589,0.40000000000000002,Y,1.2412230426021371,0.17651441685156299,0.39460023132349231
0.2204168694113551,0,N,1.7475113889266931,0.1724399131273994,0
0.46199236920847281,0.40000000000000002,Y,0.89125413961281286,0.19729163365846061,0.39460023132349231
1.3271149389203605,0,Y,0.3019065069787904,0.59363085552659089,0.26306682088232819
0.58911778623899214,0,Y,0.83245936391060615,0.29798137770687833,0.26306682088232819
0.12576114426238691,0,N,0.31823838911829228,0.1881922641963073,0
0.168034996354926,0,N,1.4572705120475469,0.11933912551608759,0.13153341044116409
0.27905579348162779,0.40000000000000002,N,1.1441650001730981,0.1959177034546711,0
0.43718740978788367,0,N,0.80726160289537485,0.32142239763132352,0.65766705220582056
0.3117983399168055,0.40000000000000002,Y,0.25337748576427083,0.23524473076012409,0
0.17329364775209091,0.40000000000000002,N,1.0956359789585779,0.32726844417077461,0.26306682088232819
0.33894426738271272,0,Y,0.38449916808427098,0.25390164531234882,0.13153341044116409
0.68734542554452505,0.80000000000000004,N,0.92391790389181638,0.1724399131273994,0.52613364176465638
0.34044806804758598,0,Y,1.2967514418764434,0.15640070816544671,0.26306682088232819
0.53731882972894685,0.80000000000000004,N,0.50675497152854165,0.34141594988954199,0.13153341044116409
1.3271149389203605,0.40000000000000002,Y,0.75359970443701174,0.32633560963091268,0.26306682088232819
0.1853860654696281,0,Y,0.95424854215089139,0.2475121724950185,0
0.58911778623899214,0.40000000000000002,Y,0.91831840144398724,0.46579761778757428,0.78920046264698474
0.067271049948637696,0.80000000000000004,Y,0.57114924967857761,0.13870295665652771,0.13153341044116409
0.16495298014691781,0,Y,0.78486359310405818,0.18094029048995799,0.13153341044116409
0.2821564134092015,0,N,1.7820416540216399,0.57910945522492374,0
0.15503099637868209,0,N,1.3560128427826357,0.17864538476060551,0
0.27905579348162779,0,N,1.3662785972703226,0.37256637329829878,0
0.68270999875280247,0,Y,1.6047240765070487,0.34300833954541882,0.13153341044116409
0.65622140271154084,0,Y,1.530530669073312,0.1649530712699325,0
0.11266412568831589,0.40000000000000002,N,0.69340505312284806,0.11484038233699979,0.26306682088232819
0.43951287473356387,0.40000000000000002,Y,0.4040974266516732,0.1187810805790725,0.26306682088232819
0.077205436196583696,0,N,1.0111768170371549,0.1731758432788999,0.26306682088232819
0.31021082251388782,0,N,0.50302196989665571,0.27323907336434961,0
0.48902977497691491,0.40000000000000002,N,0.61454539364925376,0.24982930455305721,0.39460023132349231
0.58911778623899214,0,N,1.3261488297275466,0.37256637329829878,0.13153341044116409
0.28820882350782517,0.40000000000000002,N,0.79932897442761697,0.2949750057045793,0.26306682088232819
0.4960991884117828,0,N,1.4773353958189346,0.42228972855424429,0.39460023132349231
0.71190233537090841,1.2,N,0.83852549156242118,1.1910123667264876,0
0.33670561979500457,0,Y,2.0279531365221386,0.14706236837741851,1.4468675148528052
0.20154029529228679,0,N,1.610790204158864,0.1239497461885624,0
0.60445965364062659,0,N,1.5076660340780097,0.38179253725295748,0.26306682088232819
0.48933983696967231,0,N,1.5529286788646288,0.35726578354768801,0
0.74414878261767436,0,Y,0.86279000216968116,0.31041223516711358,0.26306682088232819
0.15503099637868209,0,N,1.8665008159430641,0.14881138652403739,0.26306682088232819
0.71190233537090841,0.80000000000000004,N,0.55901699437494734,0.81193979509275793,0.13153341044116409
0.13952789674081389,0.40000000000000002,N,0.41529643154733148,0.1515737910057568,0.13153341044116409
0.13269413042044159,0.40000000000000002,N,0.2048484645497512,0.098086131022312298,0.39460023132349231
0.2204168694113551,0,N,0.28510799963530281,0.30203880146705159,0
0.0228701725857831,1.2,Y,0.43676119093067678,0.036669638497526198,0.52613364176465638
0.27905579348162779,0,N,1.5267976674414261,0.62118300040803509,0.13153341044116409
0.48933983696967231,0,N,1.5053329080580806,0.26595741482975482,0
0.19833115366724799,0,Y,0.77226471259644236,0.1309908681123749,0
0.25633445065236821,0,Y,1.243556168622066,0.13788020957015881,0.39460023132349231
0.20766712026917231,0,N,0.5394187358075454,0.15912067378467459,0.13153341044116409
0.29455889311949601,0,N,0.6677406669036311,0.26068887991116801,0.13153341044116409
0.27905579348162779,0.80000000000000004,N,0.4166963071592889,0.37256637329829878,0
0.74724940254524796,0.40000000000000002,N,0.89592039165267068,0.54227423803718444,0.13153341044116409
0.2139427750025813,0.80000000000000004,Y,1.0144431934650551,0.29425212792730721,0.13153341044116409
0.33176633225037971,0,N,0.96591417225053544,0.1338943874057533,0.52613364176465638
0.13425684286393871,0,N,1.093769478142635,0.11322367797256019,0
0.15472093438592471,0,N,0.78719671912398692,0.1485627947337311,0.26306682088232819
0.85670128598859752,0.40000000000000002,N,1.0723047187592898,0.4741676951628348,0.65766705220582056
0.15472093438592471,0,N,0.5991467619177232,0.12728831976122559,0
0.18603719565441859,0,Y,1.8963648289981525,0.43472051142948398,0.13153341044116409
0.58911778623899214,0,Y,1.2687539296372974,0.2482580224509327,0.26306682088232819
0.1444888886249317,0,N,0.29210737769508938,0.11073380706473181,0
0.64875510992594354,0,N,1.0919029773266922,0.42994580376670799,0.13153341044116409
0.33512430363194201,0,N,0.54455161305138888,0.35193019671806458,0.52613364176465638
0.44512499680247208,1.2,N,0.73120169464569518,0.45777227226193751,0.13153341044116409
0.33535374950658248,0.80000000000000004,N,0.74473382556128243,0.35215096830501519,0
0.95662186377458558,0.40000000000000002,N,0.13952093599174389,0.67842027187484699,0.13153341044116409
0.43408678986031002,0,N,2.003688625914879,0.22339638211545779,0.13153341044116409
0.26332944920897428,0,N,1.5977246984472624,0.088143951109975999,0.65766705220582056
0.65861198067570015,0.40000000000000002,N,1.0555062114158025,0.41435821095306141,0
0.55811158696325569,0.40000000000000002,Y,0.36723403553679779,0.21765908049957899,0
0.50017340299661461,0,N,1.9663586095960173,0.51073955273114069,0
0.093018597827209296,0,N,1.9210959648093984,0.099088031268091806,0.39460023132349231
0.27152748829747908,0.40000000000000002,Y,1.5067327836700379,0.36351175483350029,0.13153341044116409
0.1568076515971818,0,N,1.7979069109571559,0.18035487285956089,0.52613364176465638
0.1240247971029457,0.40000000000000002,Y,0.3938316721639864,0.030718501699286801,0
0.76975990321943255,0,N,1.2561550491296818,0.29598481195989151,0.39460023132349231
0.16495298014691781,0,N,0.48902321377708269,0.1567671442487874,0
0.15503099637868209,0,N,0.50582172112057022,0.10619135707822749,0.39460023132349231
1.0147460849368812,0,N,1.3592792192105361,0.50275000800338776,0.65766705220582056
0.35530623874051881,0,Y,1.325215579319575,0.46896934472509949,0
0.062012398551472801,0.40000000000000002,N,0.46475870316982282,0.063571402217413295,0
0.43408678986031002,0,Y,0.73866769790946729,0.1925336330346972,0.52613364176465638
0.15217222480545919,0,N,0.39569817297992949,0.1097997045799449,0
0.43408678986031002,0,Y,0.41389655593537439,0.19121243442279079,0
0.43036604594722161,0,N,1.8543685606394336,0.8933640110249248,0
0.3117983399168055,0,N,0.70927031005836427,0.16456373759294529,0
0.36408719437540749,0,Y,0.96918054867843584,0.27118194460094269,0.13153341044116409
0.16495298014691781,0.80000000000000004,Y,0.57534887651444921,0.13432056607056261,0.39460023132349231
0.37387895210668498,0,N,1.5468625512128138,0.54072242261890935,0.39460023132349231
0.32816961313439441,0,Y,0.48342371132925338,0.1724399131273994,0.39460023132349231
0.43718740978788367,0,Y,1.0550395862118167,0.17290808314472669,0.26306682088232819
1.44520514948193,0.40000000000000002,N,0.61174564242533902,0.59147579666397232,0.13153341044116409
0.076746544447302806,0.80000000000000004,Y,0.82079373381096199,0.12924028368084861,0
0.29455889311949601,0,N,1.5412630487649848,0.13016513762618229,0.13153341044116409
0.40261549759543752,0,N,1.3858768558377246,0.52117697701420407,0
1.5561391292506599,0,N,1.6065905773229918,0.1087229955835871,0.52613364176465638
0.7241807902841001,0,Y,1.5132655365258385,0.30240672925030398,0.13153341044116409
0.13547538649547511,0,N,0.4292951876669045,0.046755394526376101,0
0.62222930644555108,0,N,0.36256778349694008,0.52342444668636035,0.13153341044116409
0.2480495942058914,0,N,1.7797085280017111,0.095536368363023996,0.13153341044116409
0.1118951719462776,0.80000000000000004,N,0.79372947197978772,0.1371403264138919,0
0.35710149767858401,0,Y,1.0503733341719588,0.20710537820838859,0.26306682088232819
0.43718740978788367,0.40000000000000002,N,1.116167487933952,0.4501347687133761,0.13153341044116409
1.0342427830414644,0.40000000000000002,Y,0.8716558810454107,0.17047086924378579,0
0.71190233537090841,0,Y,1.9663586095960173,0.39676502760796151,0.52613364176465638
0.63169549908443334,0.40000000000000002,N,0.750799953213097,0.53101473793271237,0
0.184499288170342,0,Y,0.60614613997750999,0.18478268570784109,0
0.90538101885150379,1.2,Y,0.7685317109645563,0.4501347687133761,0
0.3445408863519831,0,N,0.68220604822718967,0.32227475496094221,0.26306682088232819
0.87981950816858656,0,N,1.0909697269187206,0.87603299393932876,0.39460023132349231
0.27905579348162779,0.80000000000000004,Y,1.2043596514872621,0.1239497461885624,0.13153341044116409
0.34106819203310068,0,N,2.0354191397859105,0.29798137770687833,0.13153341044116409
0.035099017580133597,0,N,2.0634166520250568,0.121960788111126,0.26306682088232819
0.46784633963173178,0,N,0.81939385819900501,0.18425417642908029,0.26306682088232819
0.58911778623899214,0,N,1.2374900409702512,0.74549135125540111,0
0.58142824881860955,0,N,1.5809261911037751,0.58892252850989135,0.13153341044116409
0.3036127033080111,0.40000000000000002,N,0.70367080761053491,0.26794846128706779,0.26306682088232819
0.81168028464022823,0.40000000000000002,Y,1.4624033892913899,0.36819979473139908,0.26306682088232819
0.78081671388116025,0.40000000000000002,N,1.2183584076068348,0.24374503353768709,0.9207338730881488
0.14535706220465239,0.40000000000000002,N,1.2141587807709631,0.12085267883162421,0
0.55380172526392835,0.40000000000000002,N,0.47315795684156658,0.40156927092899181,0.13153341044116409
0.074762147693655606,0,N,2.1590748188421389,0.063247479581559796,0
0.83765107715358511,0,Y,0.77319796300441412,0.46398438195975139,0.39460023132349231
0.16654049754983549,0,N,1.0606390886596455,0.1029448213901242,0.13153341044116409
0.074290853464664394,0.40000000000000002,Y,0.93465028358348901,0.062964056598312404,0.39460023132349231
0.13937286574443519,0,N,2.1390099350707508,0.1514356595939215,0.13153341044116409
0.2480495942058914,0.40000000000000002,N,0.98224605439003698,0.16745763542189249,0.26306682088232819
0.25325863568421508,0,N,0.54315173743943146,0.40187387605098718,0.26306682088232819
0.33323602609604969,0,N,1.4554040112316036,0.1456713582096385,0.26306682088232819
0.27905579348162779,0.80000000000000004,N,0.93884991041936083,0.12823622047019689,0.13153341044116409
0.18603719565441859,0,Y,0.30563950861067668,0.15319877430470699,0.52613364176465638
0.15503099637868209,0.80000000000000004,Y,0.56228337080284785,0.17864538476060551,0.39460023132349231
0.50775751933945978,0,N,1.3284819557474754,0.64763583703945748,0.39460023132349231
0.8602514958056694,0,N,1.2463559198459806,1.4289136658595869,0.13153341044116409
0.61160968319361142,0.40000000000000002,N,0.53101948213580163,0.42903139172075722,0.26306682088232819
0.45188434824458268,0,N,2.0307528877460528,0.77403256776338314,0.13153341044116409
0.039191835884530797,0.40000000000000002,Y,0.88705451277694092,0.0334134813449916,0.13153341044116409
0.2821564134092015,0,N,1.6355213399701092,0.31351989359342569,0.52613364176465638
0.84775909811747518,0,N,1.508599284485981,0.60360085564228283,0
0.46819360906362001,0.40000000000000002,N,0.69060530189893343,0.29984600259666389,0.39460023132349231
0.2480495942058914,0,Y,1.654652973333526,0.22339638211545779,0.13153341044116409
0.17554469781950929,0,N,1.3704782241061944,0.22548476199201761,0.26306682088232819
1.7648728627749175,0.40000000000000002,Y,0.60941251640541028,0.66425106192236261,0.39460023132349231
0.093018597827209296,0.80000000000000004,Y,0.77693096463630007,0.1189773882874692,0
0.41002597922233852,0,N,0.25571061178419968,0.23539628747116589,0.65766705220582056
0.2821564134092015,0,Y,0.69387167832683372,0.21487236130929671,0.52613364176465638
0.40308059058457357,0,Y,1.5188650389736678,0.2084793829971737,0.39460023132349231
0.062012398551472801,0,N,0.037796641522846897,0.22339638211545779,0
0.3117983399168055,0,Y,1.3975424859373689,0.1027178592485395,0
0.80061727273864547,1.2,N,0.70553730842647788,0.44418788325988529,0.13153341044116409
0.4718399380984466,0.80000000000000004,Y,0.50348859510064137,0.1724399131273994,0.26306682088232819
0.15503099637868209,0,Y,1.1917607709796461,0.17864538476060551,0
0.31575783156431708,0,Y,0.5646164968227767,0.083055016860773295,0.13153341044116409
0.2480495942058914,0.40000000000000002,N,0.33783664768569438,0.1914314159698472,0
0.57314339237213274,0.40000000000000002,Y,0.93931653562334683,0.85450828630661391,0
0.52617520170924725,0.40000000000000002,N,0.92625102991174524,0.53575834365232677,0.26306682088232819
0.19432205210089529,0.40000000000000002,N,0.72700206780982313,0.15450542884247309,0.26306682088232819
0.58560788448097878,0,N,1.6569860993534546,0.2743186165905398,0.26306682088232819
0.039539105316419097,0,N,2.1413430610906792,0.1353980209168763,0.39460023132349231
0.54843145154937079,0,N,0.77646433943231441,0.18548535095130789,0.39460023132349231
0.15472093438592471,0,N,1.373277975330109,0.17834704477823979,0.52613364176465638
0.38757749094670541,0,Y,0.23844547923672629,0.22339638211545779,0.39460023132349231
0.068151626008068594,0,N,0.76339883372071293,0.095050521701741497,0
0.30053688833985809,0,N,1.0349747024404288,0.22750497118260679,0.26306682088232819
0.52018480400917488,0,Y,1.4787352714308919,0.22062182027945701,0.26306682088232819
0.60046605517391172,0,Y,1.3956759851214255,0.3793909003949138,0.13153341044116409
0.56559028222856333,0,N,1.2318905385224217,0.3185535603608951,0.39460023132349231
0.32816961313439441,0,N,0.84599149482619362,0.28763890012320281,0.13153341044116409
0.43408678986031002,0,N,1.8427029305397893,0.55902886227685,0
0.48933983696967231,0.80000000000000004,N,0.65607503680398693,0.41686986067960258,0
0.2480495942058914,0.40000000000000002,N,0.94678253888711883,0.16745763542189249,0.39460023132349231
0.2330301912767247,0,N,1.281352810144913,0.18110885257999451,0.78920046264698474
0.21704339493015501,0,N,1.4628700144953759,0.23831338123374191,0
0.15503099637868209,0,Y,0.62341127252498307,0.1275014090936302,0.13153341044116409
0.077515498189341003,0,N,0.47735758367743852,0.1040603891691851,0.52613364176465638
0.58911778623899214,0.80000000000000004,N,0.83525911513452078,0.16538581341435399,0.9207338730881488
0.093018597827209296,0.40000000000000002,N,0.028930762647117501,0.1189773882874692,0.26306682088232819
0.17372463392202361,0,N,1.9136299615456256,0.1090807798074392,0.39460023132349231
0.43408678986031002,0,Y,1.4778020210229206,0.55902886227685,0.13153341044116409
0.039539105316419097,0,N,0.39103192094007172,0.056206655997729699,0.13153341044116409
0.30075703235471579,0,N,1.5449960503968707,0.53167608308862158,0.13153341044116409
0.45250447223009738,0,Y,0.96451429663857824,0.29041100065434911,0.78920046264698474
0.4396151951911737,0,Y,0.1656519474149469,0.2260560830582479,0
0.64891324154224983,0,Y,1.0919029773266922,0.32674881050648918,0.26306682088232819
0.36273532408698528,0,N,2.0186206324424232,0.52583026030415725,0.13153341044116409
0.51134803721559008,0.80000000000000004,Y,0.85112437207003711,0.59265312081938293,0.13153341044116409
0.1240247971029457,0,N,2.185672455469327,0.097779512105435895,0
0.59221840616656585,0,Y,1.8870323249184371,0.42797235936835459,0.52613364176465638
0.15503099637868209,0,Y,1.7596436442303232,0.22339638211545779,0.13153341044116409
0.34364170657298682,1.6000000000000001,N,0.4918229650009972,0.45024664620676319,0
1.2092417717537207,0,N,0.96264779582263516,0.39742801363377372,0.39460023132349231
0.24168712211451029,0,N,1.5309972942772978,0.2182947684170046,0.13153341044116409
0.15472093438592471,0,N,2.105879545587761,0.22302345713750071,0.13153341044116409
0.27905579348162779,0.40000000000000002,Y,1.0293751999925995,0.18610388431974759,0.26306682088232819
0.34106819203310068,0,N,1.5515288032526715,0.23517297999436509,0
0.40308059058457357,0,N,1.8543685606394336,0.41731737065315111,0.52613364176465638
0.1853860654696281,0,N,1.8627678143111772,0.13142077602696381,0.26306682088232819
0.81505065850150071,0,Y,1.0032441885693966,0.22577236173501811,0
0.52617520170924725,0,Y,1.3989423615493259,0.38258209401628829,0
0.61826361355818449,0,N,1.5893254447755187,0.74336038334635857,0.52613364176465638
0.27905579348162779,0.40000000000000002,N,1.3200827020757315,0.10619135707822749,0.52613364176465638
0.68734542554452505,0.40000000000000002,Y,0.47969070969736738,0.49335147812391728,0.13153341044116409
0.15503099637868209,0.40000000000000002,N,1.0270420739726709,0.22339638211545779,0.39460023132349231
0.27905579348162779,0,N,1.1063683586502508,0.14881138652403739,0.26306682088232819
0.37170231691752831,0.40000000000000002,N,0.84739137043815072,0.64544803536377426,0
0.36408719437540749,0.40000000000000002,N,0.92765090552370277,0.31643870281090042,0.13153341044116409
0.36040055728152232,0.80000000000000004,N,0.99064530806178075,0.4704032412653445,0.13153341044116409
0.3445408863519831,0,N,1.2113590295470482,0.2577480681199939,0.78920046264698474
0.43098616993273631,0.40000000000000002,N,0.86978938022946761,0.37008023164024989,0.39460023132349231
0.3117983399168055,0,Y,1.7115812482197892,0.23524473076012409,0.52613364176465638
0.58911778623899214,0,N,0.72793531821779489,0.33113023148751158,0.52613364176465638
0.27905579348162779,0,N,1.5608613073323869,0.4512884494251842,0.13153341044116409
0.48933983696967231,0,N,1.1427651245611408,0.50031555374728376,0
0.3445408863519831,0,N,1.950026727456516,0.2577480681199939,0
0.27905579348162779,0,N,1.1115012358940943,0.33866413647719651,0
0.15472093438592471,0,N,1.9252955916452696,0.22302345713750071,0
0.2299977849875576,0,Y,1.2416896678061229,0.33008432609433308,0
1.6666452234693845,0.40000000000000002,N,0.87212250624939636,0.74212823921918836,0.26306682088232819
0.094407675554762205,0,N,2.0825482853884729,0.1672421593696288,0
0.057252946962647301,0.40000000000000002,Y,1.2006266498553757,0.084563871321587797,0.26306682088232819
0.51134803721559008,0,Y,0.78812996953195857,0.4345166706365326,0.13153341044116409
0.89917977899635648,0,Y,2.0419518926417117,0.37256637329829878,0.39460023132349231
0.43408678986031002,0,N,0.55715049355900437,0.3192913551372854,0.26306682088232819
0.4928094306686272,0,Y,1.2393565417861945,0.62965712385214545,0
0.27905579348162779,0,Y,0.81472760615914719,0.16538581341435399,0.26306682088232819
0.44512499680247208,0.40000000000000002,Y,0.33923652329765169,0.28597319341665961,0.26306682088232819
0.32816961313439441,0.40000000000000002,N,0.44609369501039209,0.2156395425739501,0.13153341044116409
0.50760248834308108,0,N,1.426939873788472,0.47949917981770063,0
0.83468688450282469,0,N,0.4292951876669045,0.5202446645693114,0.13153341044116409
0.24168712211451029,0.40000000000000002,N,0.81939385819900501,0.3276214549549088,0.13153341044116409
0.1567673435381233,0,N,0.4096969290995025,0.112563078666607,0.52613364176465638
0.35331254012708901,0,N,1.0923696025306775,0.36943082008363548,0.26306682088232819
0.25633445065236821,0,N,1.6210559586465507,0.27611902379912112,0.13153341044116409
0.15503099637868209,0,N,0.99391168448968115,0.17864538476060551,0.26306682088232819
0.1444888886249317,1.2,N,0.77039821178049939,0.1685018253601723,0.13153341044116409
0.062012398551472801,0,N,1.0153764438730264,0.22339638211545779,0.26306682088232819
0.74414878261767436,0,N,1.1912941457756605,0.23271950656438539,0.39460023132349231
0.045740345171566298,0.80000000000000004,N,0.52495335448398661,0.091947785885138397,0.26306682088232819
0.15503099637868209,0,N,1.4367390030721729,0.10134818038949869,0.13153341044116409
0.062012398551472801,1.2,Y,0.37190028757665539,0.051677407555445101,0.26306682088232819
0.85670128598859752,1.2,Y,0.54735136427530318,0.85378876485414346,0
0.29455889311949601,0,Y,1.0947027285506068,0.31289837682516242,0
0.1444888886249317,0.80000000000000004,N,0.81052797932327525,0.14035844521867491,0
0.32629683869813991,0,N,2.0176873820344521,0.50522235143725214,0
0.89220958539917095,0,N,1.7274465051553054,0.36977189726847498,1.4468675148528052
0.89220958539917095,0,N,1.2869523125927422,0.73990247378074914,0.26306682088232819
0.48840965099140021,0,N,1.1231668659937384,0.41612401072368832,0.52613364176465638
0.31365251063349447,0,Y,0.85625724931388048,0.18387961058122021,0.26306682088232819
0.58911778623899214,0,N,1.5673940601881875,0.4968747241456648,0
0.062012398551472801,0,N,1.3765443517580094,0.22339638211545779,0.26306682088232819
0.143825355960431,0,Y,0.42276243481110382,0.1678633777979098,0.13153341044116409
0.41002597922233852,0,Y,0.9439827876632042,0.30275481742472921,0.26306682088232819
0.093018597827209296,0,N,0.041063017950747301,0.1189773882874692,0.13153341044116409
0.84249734610038263,0,N,1.6532530977215685,0.84012181026197175,0
0.17013101542596579,0,N,1.9733579876558041,0.42781207621282868,0.13153341044116409
0.093018597827209296,0,Y,0.37050041196469807,0.034740199246571797,0
0.66278851571814201,0,Y,1.3448138378869772,0.41686986067960258,0.13153341044116409
0.13952789674081389,0.80000000000000004,N,0.68827217587900469,0.1363805290638021,0
0.44512499680247208,0,N,1.819838295544487,0.1905292358631733,0.13153341044116409
0.19840246792558219,0,N,0.1488534400714594,0.15730982467671059,0.39460023132349231
0.062012398551472801,0,N,0.56694962284270545,0.052289601199259503,0.13153341044116409
0.74414878261767436,0,N,1.2930184402445573,0.46579761778757428,0.13153341044116409
0.1853860654696281,0,N,0.18758333200227781,0.1998447526425505,0
0.80926180109672075,0,Y,1.0116434422411404,0.40389207144669531,0.26306682088232819
0.37207439130883718,0,N,1.6975824921002165,0.14881138652403739,1.4468675148528052
0.23837566003186161,0,N,1.3060839459561586,0.092212040524518799,0.26306682088232819
0.1240247971029457,0,Y,0.36070128268099699,0.092872639830472004,0.26306682088232819
0.084851564937980295,0,N,1.3550795923746639,0.042517475076871598,0.26306682088232819
0.093018597827209296,0.40000000000000002,N,1.3023509443242722,0.14881138652403739,0.39460023132349231
0.52055997902041129,0,Y,1.3387477102351619,0.44190304650493778,0.26306682088232819
0.98021758142342119,0,N,1.5239979162175112,0.25302527161414962,0
0.3117983399168055,0.40000000000000002,N,1.0382410788683289,0.2057943231558825,0
0.59221840616656585,0,Y,0.69340505312284806,0.33278773384453969,0.26306682088232819
0.82829340621216785,0,N,1.7041152449560171,0.82645485566979993,0.65766705220582056
0.4000047756164205,0,Y,0.73960094831743894,0.41435783802808351,0.26306682088232819
0.36098657444783377,0,N,1.6093903285469069,0.26905090210690458,0.65766705220582056
1.269083736355892,1.2,Y,0.65840816282391568,0.52086618133757467,0.13153341044116409
0.43408678986031002,0,Y,1.6975824921002165,0.27933512880902323,0.13153341044116409
0.54474791507541331,0,N,0.80772822809936085,0.46129768124855719,0.13153341044116409
0.1772221332003267,0,Y,2.0410186422337402,0.0497304408305266,1.7099343357351331
0.58142824881860955,0,N,1.9322949697050564,0.73624281180206497,0.52613364176465638
0.53784593511663437,0,N,1.8338370516640601,0.31786611045652902,0.13153341044116409
0.093018597827209296,0,N,2.015820881218509,0.19853474177998279,0
0.31384474906900411,0,N,0.40736380307957359,0.23665118002199151,0.26306682088232819
0.13022603695809301,0,N,0.32570439238206461,0.12892202950466,0
0.43408678986031002,0,N,1.998555748671035,1.1184163292125031,0.13153341044116409
0.1567673435381233,0,N,1.41060799164897,0.069131639053758104,0.78920046264698474
0.15503099637868209,0.40000000000000002,N,1.4624033892913899,0.29798137770687833,0.13153341044116409
0.48933983696967231,0,N,0.92205140307587319,0.2082556280103994,0.26306682088232819
0.43408678986031002,0.40000000000000002,Y,0.63554352782861301,0.27933512880902323,0
0.074290853464664394,0,N,0.36723403553679779,0.100957653352582,0.13153341044116409
0.1085216974650775,0,N,1.195960397815518,0.095536368363023996,0
0.093018597827209296,0,N,1.5505955528447,0.22913368373133661,0.13153341044116409
0.50760248834308108,0,Y,1.4894676511225649,0.43151335661905288,0.52613364176465638
0.077515498189341003,0,N,1.6887166132244866,0.1736730268595123,0.52613364176465638
0.1485817069293289,0,N,1.5552618048845577,0.042841024787747102,0.26306682088232819
0.38204598499591391,0,N,1.5631944333523158,0.28352464259638882,0.52613364176465638
0.31316261268493789,0,N,1.7190472514835613,0.3938763507287058,0.52613364176465638
0.11991957631883821,0,Y,0.37656653961651299,0.14486136515751569,0
0.4862082108428229,0,N,1.7988401613651277,0.35511348432990641,0.13153341044116409
0.31006199275736429,0,N,1.7479780141306789,0.20475013321760269,0
0.43408678986031002,0,N,1.9061639582818533,0.2482580224509327,0
0.24314441348046989,0.40000000000000002,Y,0.63461027742064169,0.25328199316897521,0.13153341044116409
0.1175755076535925,0.80000000000000004,N,1.1376322473172973,0.071123655116013804,0.26306682088232819
0.26045207391618602,0.40000000000000002,N,0.7717980873924567,0.35019087462087262,0.52613364176465638
0.18541707166890381,0,N,1.9537597290884012,0.41612401072368832,0
0.19355309835885701,0.80000000000000004,N,0.81939385819900501,0.24517520082815261,0.13153341044116409
0.31936075192015762,0,N,0.69433830353081971,0.3367625920145933,0
0.74414878261767436,0,N,1.5109324105059101,0.41400251510908598,0.13153341044116409
1.0235611473909731,0,Y,0.28977425167516058,0.63382828973059568,0.26306682088232819
0.093018597827209296,0,N,0.58374813018619309,0.19853474177998279,0.26306682088232819
0.58911778623899214,0,N,0.48948983898106829,0.2190089943347881,0.26306682088232819
0.1444888886249317,0,N,2.0699494048808571,0.084071610350684403,0
0.74724940254524796,0.40000000000000002,Y,1.3854102306337388,0.69300559151773611,0.26306682088232819
0.087397173898518199,0.40000000000000002,N,0.76526533453665602,0.056604939874187903,0.13153341044116409
0.15217222480545919,0.80000000000000004,N,0.61641189446519684,0.14651916585452621,0
0.071221239736366501,0,N,1.7983735361611417,0.16357921565113859,0.52613364176465638
0.086569308377856105,0.40000000000000002,N,0.84365836880626455,0.080448942529813494,0.26306682088232819
0.32816961313439441,0,N,1.4880677755106071,0.12669909829605339,0.65766705220582056
0.3445408863519831,0.80000000000000004,N,0.2552439865802138,0.22548476199201761,0.39460023132349231
0.35656509043111378,0,N,1.4344058770522443,0.3449368091914306,0
0.55804027270492151,0.40000000000000002,Y,1.1236334911977242,0.28303006949062209,0
0.093018597827209296,0,Y,0.25991023862007162,0.065939177487458603,0.13153341044116409
0.36276322966633351,0,N,1.4428051307239882,0.72826221727378293,0.39460023132349231
0.44865970351990608,0,N,1.195493772611532,0.25604805231547861,0.26306682088232819
0.1240247971029457,0,N,0.57348237569850624,0.18610388431974759,0.52613364176465638
0.068151626008068594,0,N,1.2323571637264077,0.16413987106299929,0
0.087521198695621194,0.40000000000000002,Y,1.0727713439632758,0.081103127526145805,0
0.1052970527404009,0,N,0.34016977370562329,0.093320149804020494,0
0.2821564134092015,0,N,1.0713714683513185,0.30096477753053508,0.13153341044116409
0.18603719565441859,0,Y,1.6966492416922447,0.474273158346601,0.26306682088232819
0.80460466996550528,0,N,1.5967914480392906,0.80366168101706181,0.13153341044116409
0.28445397277553358,0,Y,0.64160965548042803,0.26130868122453271,0.13153341044116409
0.087918078046350601,0,Y,0.39196517134804321,0.2039776564182624,0
1.7034805882089594,0,Y,1.141831874153169,1.0427125586872117,0
0.2318767606636673,0.40000000000000002,N,0.72046931495402244,0.35095328244580809,0
0.093018597827209296,0,N,1.8534353102314616,0.19853474177998279,0.26306682088232819
0.3036127033080111,0,Y,0.71626968811815062,0.17851277263844401,0.52613364176465638
0.34106819203310068,0,N,0.38403254288028532,0.35764937418001469,0.13153341044116409
1.0342427830414644,0,N,1.4479380079678317,0.35553615749992301,0
0.73645924519729167,1.2,Y,0.75593283045694082,0.18425417642908029,0.39460023132349231
0.20154029529228679,0,N,0.98037955357409401,0.13948826207510981,0.26306682088232819
0.52617520170924725,0,N,1.4059417396091127,0.89316964252641362,0.13153341044116409
0.1111200169643842,0.40000000000000002,Y,1.4801351470428492,0.081042042414756502,0.26306682088232819
0.16495298014691781,0.80000000000000004,N,0.54361836264341723,0.3138928185713829,0.13153341044116409
0.73645924519729167,0,N,0.39149854614405749,0.55907406078417832,0
0.16439176794002699,0,N,0.87492225747331098,0.10409186403732459,1.0522672835293128
0.74414878261767436,0,Y,1.1800951408800018,0.53239135319634334,0.13153341044116409
0.70046414845808924,0.40000000000000002,N,1.2440227938260515,0.29289841025732299,0.65766705220582056
0.15503099637868209,0.40000000000000002,N,0.4260288112390041,0.17864538476060551,0.13153341044116409
0.54459288407903461,0.40000000000000002,N,0.71346993689423599,0.25138611716603698,0
0.50208028425207241,0,Y,2.0298196373380808,0.42708554377077268,0.26306682088232819
0.56332062844157949,0,N,0.72793531821779489,0.95273821720042662,0.13153341044116409
0.27905579348162779,0.40000000000000002,Y,0.92438452909580238,0.2127413934002543,0.65766705220582056
0.61826361355818449,1.2,N,0.80306197605950314,0.78054629918336871,0.78920046264698474
0.13062291630882239,0.40000000000000002,N,0.55761711876299036,0.1491785684573339,0.39460023132349231
0.1240247971029457,0,Y,1.5267976674414261,0.082513604377775204,0.26306682088232819
0.15503099637868209,0.40000000000000002,N,0.51795397642420016,0.22339638211545779,0
0.85420838756682838,0,N,1.0648387154955177,0.85139011139592358,0.26306682088232819
0.2821564134092015,0.40000000000000002,N,0.4577593251100362,0.30096477753053508,0.26306682088232819
0.54570910725296118,0,N,0.85532399890590882,0.30792601892406918,0.13153341044116409
0.85670128598859752,0,Y,1.8086392906488284,0.34405566205351351,0.13153341044116409
1.0200915536920181,0.40000000000000002,Y,0.23424585240085441,0.42104162323801742,0.13153341044116409
0.58911778623899214,0,Y,1.2491556710698954,0.4258413914593121,0.13153341044116409
0.13952789674081389,0,N,1.1334326204814251,0.27311973737140333,0.26306682088232819
0.28252848780051038,0,N,1.6859168620005722,0.38320622125939729,0.39460023132349231
0.2480495942058914,0,N,1.3821438542058382,0.22339638211545779,0
0.4928094306686272,0.80000000000000004,N,0.43116168848284758,0.62965712385214545,0
0.71190233537090841,0,Y,1.2804195597369414,1.3743002199526857,0.26306682088232819
0.41002597922233852,0,N,0.6453426571123142,0.26486563966428761,0.13153341044116409
0.50775751933945978,0,N,1.0139765682610691,0.1360613052826708,0.78920046264698474
0.68734542554452505,0.40000000000000002,N,1.050839959375945,0.86363398427221105,0.13153341044116409
0.20154029529228679,0,Y,1.2421562930101089,0.20682195522514121,0.39460023132349231
0.062012398551472801,0,Y,2.1810062034294697,0.089143390050900995,0.26306682088232819
0.15503099637868209,0.80000000000000004,N,0.56181674559886208,0.2482580224509327,0.65766705220582056
0.48320060951307647,0.40000000000000002,Y,0.4848235869412108,0.27451194089911279,0.26306682088232819
0.25566471674801228,0,Y,1.2589548003535962,0.21513609385370799,0.26306682088232819
0.61826361355818449,0,Y,1.3042174451402158,0.39009384726228258,0.39460023132349231
0.3445408863519831,0,Y,0.52868635611587267,0.30076585934729277,0.52613364176465638
0.44276852565751618,0.40000000000000002,N,0.73353482066562392,0.19613429828186851,0.13153341044116409
0.3228303456191125,0.40000000000000002,Y,0.80912810371131783,0.17696408978998371,0.13153341044116409
0.16495298014691781,0,N,2.1296774309910358,0.17422555250685351,0
0.54474791507541331,0,N,1.8916985769582948,0.62917269430577927,0
0.45894135919974027,0,N,1.2150920311789344,0.42055652242669089,0.13153341044116409
0.27595517355405419,0,N,0.46242557714989402,0.29499797788322152,0.13153341044116409
0.3393256436338043,0.40000000000000002,Y,0.21371434342548071,0.1778070494101579,0
0.83419078531441282,0,Y,1.3802773533898955,0.2969585190773375,0.26306682088232819
0.41002597922233852,0,Y,0.2664429914758723,0.26486563966428761,0.39460023132349231
0.089917977899635598,0.40000000000000002,N,0.52635323009594392,0.057817691902504402,0
0.50775751933945978,0,Y,1.9262288420532416,0.51803694869980532,0.26306682088232819
0.021642327094463999,0.80000000000000004,N,0.70227093199857749,0.062964056598312404,0.39460023132349231
0.13823183761108809,0.40000000000000002,N,1.206226152303205,0.1353413363202268,0
0.43718740978788367,0.80000000000000004,N,0.54735136427530318,0.43280807755752437,0.52613364176465638
0.2982052221543226,0,Y,1.6247889602784369,0.15802412517948961,0
0.21704339493015501,0.40000000000000002,Y,0.41576305675131742,0.33113023148751158,0.52613364176465638
0.1240247971029457,0.80000000000000004,Y,0.59401388467387972,0.10619135707822749,0.13153341044116409
0.34416261072081922,0,Y,1.9682251104119608,0.36062680720402418,0.52613364176465638
0.7887356971761833,0,N,0.65887478802790134,0.32828772272052698,0.13153341044116409
0.15503099637868209,0,N,1.4950671535703941,0.20305504002279651,0.26306682088232819
0.199233434066172,0,N,2.0116212543826371,0.2211767326466571,0.26306682088232819
0.84133461362754258,0,N,1.7157808750556611,0.29941340962223351,0.52613364176465638
0.48320060951307647,0.80000000000000004,N,0.50115546908071251,0.1120884197546632,0.13153341044116409
0.28835765326434881,0.40000000000000002,Y,1.2958181914684721,0.3069315771778488,0.39460023132349231
0.33645446958087111,0.80000000000000004,N,0.52168697805608621,0.40142397935757967,0.26306682088232819
0.52617520170924725,0,N,1.1814950164919591,0.89316964252641362,0.26306682088232819
0.37207439130883718,0,Y,1.8249711727883304,0.1208420131772547,0.65766705220582056
0.184499288170342,0.40000000000000002,N,1.3270820801355181,0.25883917202050077,0.26306682088232819
0.179299548551801,0,N,1.3863434810417106,0.14418070248774839,0
0.40308059058457357,0.40000000000000002,Y,1.0158430690770124,0.16805916341133731,0
0.83468688450282469,0,N,1.3644120964543796,0.27729649712452281,0.52613364176465638
0.099002794287426393,0.40000000000000002,N,0.27624212075957327,0.18360312400256279,0.26306682088232819
0.1976366148034715,0,N,0.27950849718747361,0.21964028173747391,0.13153341044116409
0.43408678986031002,0.80000000000000004,N,1.1273664928296101,0.22339638211545779,0.13153341044116409
0.1240247971029457,0,N,0.96684742265850676,0.18610388431974759,0
0.083716738044488301,0,Y,1.8679006915550209,0.1376236371853243,0.26306682088232819
0.74919659185976417,0.80000000000000004,N,0.30563950861067668,0.53586059968128263,0.52613364176465638
0.21704339493015501,0,N,1.6733179814929564,0.9941079783651372,0.13153341044116409
0.22621502867591781,0.40000000000000002,N,1.0004444373454819,0.30901249855484941,0.39460023132349231
0.71190233537090841,0.80000000000000004,N,0.66074128884384442,0.89316964252641362,0.26306682088232819
0.15503099637868209,0,N,0.5632166212108195,0.063571402217413295,0.65766705220582056
0.27905579348162779,0.40000000000000002,Y,1.1068349838542366,0.41400251510908598,0
0.13642727681324029,0,N,1.4078082404250556,0.1338943874057533,0
0.38923012136810209,0,Y,1.698049117304202,0.40399052364087601,0
1.0374364215668652,0,Y,0.25991023862007162,0.64217248611238587,0
0.1918167511994158,0,Y,1.5169985381577249,0.1214590548457825,0
0.1085216974650775,0,N,1.2482224206619237,0.1115188887283271,0
0.031006199275736401,0.80000000000000004,N,0.54688473907131752,0.092872639830472004,0
0.0918403622547313,0,N,0.28977425167516058,0.19664520550166981,0.52613364176465638
0.3590207814137521,0,N,1.0662385911074752,0.46874372511343548,0
0.48933983696967231,0.40000000000000002,N,0.61687851966918239,0.17845362673694001,0.9207338730881488
0.7241807902841001,0,N,0.62434452293295495,0.67245332305754224,0.26306682088232819
0.081443983637576794,0,N,1.6369212155820667,0.099825602289495399,0.26306682088232819
0.093018597827209296,0.40000000000000002,N,0.43302818929879078,0.18610388431974759,0
0.50775751933945978,0.40000000000000002,N,1.6229224594624938,0.64763583703945748,0.39460023132349231
0.89917977899635648,0,Y,1.4250733729725289,0.29798137770687833,0.26306682088232819
0.077800755222677806,0.40000000000000002,N,0.67940629700327515,0.065074811973549598,0.39460023132349231
0.1444888886249317,0,N,0.93791666001138962,0.14035844521867491,0.13153341044116409
0.062012398551472801,0,N,1.3247489541155897,0.1115188887283271,0.13153341044116409
0.068151626008068594,0,N,2.0704160300848429,0.1080608299927265,0
0.14572913659596121,0,N,1.8506355590075476,0.2122086327767447,0
0.15652859580370021,0.40000000000000002,N,0.82499336064683404,0.099888626610770095,1.0522672835293128
0.58911778623899214,0.40000000000000002,Y,0.82126035901494798,0.37256637329829878,0.13153341044116409
0.32816961313439441,0.40000000000000002,N,1.1992267742434184,0.43163768980670381,0.65766705220582056
0.58911778623899214,0,N,0.1833837051664059,0.74549135125540111,0.13153341044116409
1.269083736355892,0,Y,1.5067327836700379,0.56825025279179087,0
0.031793756737340098,0,N,2.1782064522055551,0.100351053583437,0.26306682088232819
0.19432205210089529,0,N,0.77226471259644236,0.089978742001524906,0.39460023132349231
0.58911778623899214,0.40000000000000002,N,0.31870501432227799,0.4258413914593121,0.39460023132349231
0.1444888886249317,0,N,1.1870945189397879,0.1238034850122076,0.13153341044116409
0.86898284152171668,0,Y,0.93138390715558883,0.36045996056888618,0.13153341044116409
0.41002597922233852,0.40000000000000002,N,0.6248111481369405,0.25223593860580562,0.26306682088232819
0.3228303456191125,0,N,0.33970314850163758,0.34010101641726531,0.13153341044116409
0.3590207814137521,0,N,1.6994489929161594,0.23419256022731591,0.13153341044116409
0.80554105718363245,0,Y,1.8291707996242024,0.25117929297326191,0.13153341044116409
0.071835162482026094,0,Y,1.7013154937321022,0.098594800692245799,0.13153341044116409
0.84021839045361602,0,N,0.62061152130106845,1.047500915404181,0.39460023132349231
0.099002794287426393,0,N,0.13578793435985781,0.062188372644161598,0
0.25879014163500652,0,N,1.5547951796805719,0.1068877571820646,0.13153341044116409
0.67506697063133358,0,N,1.7997734117730988,0.28271629041416901,0.39460023132349231
0.27905579348162779,0,Y,0.1325215579319575,0.16538581341435399,0
0.41403818140861881,0.40000000000000002,N,1.0723047187592898,0.154793326925456,0
0.1085216974650775,0,Y,1.5067327836700379,0.1338943874057533,0.26306682088232819
0.49974551744660939,0.40000000000000002,N,1.249622296273881,0.45561147035465849,0.26306682088232819
0.43408678986031002,0,N,1.6733179814929564,0.37256637329829878,0.13153341044116409
0.75017638775687745,0,Y,1.1404319985412117,0.31282878902427558,0.78920046264698474
0.33670561979500457,0,N,1.4222736217486145,0.35345173062812951,0
0.89917977899635648,0,N,1.9061639582818533,0.22339638211545779,0
0.23361310782310851,0,N,1.897298079406124,0.25425666989136397,0
0.49977032240602998,0,N,1.2524220474977954,0.2833693566355675,1.0522672835293128
0.36091215956957201,0.80000000000000004,N,0.65280866037608654,0.2353299814100851,0.52613364176465638
0.15503099637868209,0,Y,0.5706826244745915,0.099088031268091806,0.26306682088232819
0.13937286574443519,0,N,1.8926318273662663,0.22733282901278179,0.39460023132349231
0.65325410944085305,0,Y,1.1432317497651263,0.43279375723837082,0
0.20245807879084851,0,N,1.5967914480392906,0.056947061248965702,0.26306682088232819
0.89917977899635648,0,N,0.8399253671743786,0.3192913551372854,0
0.21309940638228131,0,N,1.5799929406958031,0.19537233796690659,0
0.4709221545998849,0,N,2.0811484097765161,0.20087171344684879,0
0.1901176114791055,0,Y,1.0195760707088986,0.13261898398114,0.13153341044116409
0.33894426738271272,0,Y,1.3676784728822799,0.12677152032677261,0.26306682088232819
0.1085216974650775,0,N,0.037796641522846897,0.090352860339411395,0.13153341044116409
0.13425684286393871,0,Y,2.1072794211997188,0.18034047795541169,0.13153341044116409
0.22634525471287589,0,N,0.28884100126718909,0.41234501275205782,0.13153341044116409
0.48933983696967231,0,Y,1.8119056670767288,0.50031555374728376,0.26306682088232819
0.17671053091227701,0.40000000000000002,N,0.51188784877238513,0.17193788152207351,1.0522672835293128
0.15503099637868209,0,Y,1.4624033892913899,0.1115188887283271,0
0.15503099637868209,0.80000000000000004,N,0.17731757751459101,0.19421097500055259,0.13153341044116409
0.1976366148034715,0,N,1.2790196841249839,0.32316917822807451,0.13153341044116409
0.13952789674081389,0.80000000000000004,N,0.47642433326946698,0.18610388431974759,0.26306682088232819
0.3117983399168055,0.40000000000000002,N,0.789529845143916,0.27451194089911279,0
0.15472093438592471,0,N,1.3457470882949487,0.44640551893380509,0.13153341044116409
0.43408678986031002,0,N,1.4087414908330269,0.1115188887283271,0.13153341044116409
0.035099017580133597,0,N,1.9392943477648432,0.1056515108801368,0
0.37053648382476068,0,N,1.5412630487649848,0.27561438171894959,0.26306682088232819
0.086569308377856105,0.80000000000000004,N,0.94864903970306202,0.093916829768751903,0.78920046264698474
0.49394425756211918,0,Y,0.30890588503857702,0.2627166967713076,0
0.50057338296727161,0,N,1.8235712971763729,0.25538290332479441,0.39460023132349231
0.58911778623899214,0.40000000000000002,Y,0.87258913145338235,0.51402069585719845,0.39460023132349231
0.63124900981486276,0,N,1.2244245352586498,0.45479737512777818,0.13153341044116409
0.48933983696967231,0,N,1.2113590295470482,0.41686986067960258,0.13153341044116409
0.52617520170924725,0,N,1.8156386687086148,0.3347144880356529,0.13153341044116409
0.14200219144301771,0,N,2.0279531365221386,0.1036837349414484,0
0.19432205210089529,0,N,1.1810283912879731,0.089978742001524906,0.26306682088232819
0.2356471144955968,0,N,2.0848814114084018,0.074226390932616904,0
0.2852570333367751,0,N,0.91411877460811519,0.54304634191154677,0.26306682088232819
0.1240247971029457,0.40000000000000002,N,1.2449560442340235,0.2482580224509327,0
0.30075703235471579,0,N,2.0312195129500386,0.2656587019224112,0
0.48933983696967231,0.40000000000000002,Y,0.85859037533380911,0.44667186195306202,0.39460023132349231
1.0542107753750387,0,N,1.5897920699795045,0.65226010676612545,0.13153341044116409
0.80061727273864547,0,Y,1.8403698045198604,0.49975616628034808,0.78920046264698474
0.46199236920847281,0,N,0.294907128919004,0.39494187197572489,0.13153341044116409
0.3117983399168055,0,Y,0.2034485889377938,0.2057943231558825,0.13153341044116409
0.3565712916709689,1.2,N,0.57488225131046355,0.31041223516711358,0.13153341044116409
0.51134803721559008,0,Y,1.8525020598234907,0.52149172569559987,0.13153341044116409
0.37728343278716081,0,Y,1.7246467539313908,0.3065586521998917,0.26306682088232819
0.84997914198561786,0,N,1.8907653265503237,0.34705099547646501,0
0.86380170562274117,0,N,1.6635188522092552,0.35838276844166511,0
0.85670128598859752,0,N,1.2696871800452691,0.97026337902954718,0.26306682088232819
0.046509298913604599,0,Y,1.1754288888401443,0.046257017585834198,0
0.37728343278716081,0.40000000000000002,N,0.1997155873059078,0.6543982348347448,0.13153341044116409
0.18541707166890381,0.40000000000000002,Y,0.4008310502237728,0.5202446645693114,0.39460023132349231
0.85670128598859752,0,Y,1.6686517294530987,0.85378876485414346,0.26306682088232819
0.15503099637868209,0,N,0.58981425783800812,0.1594663752392409,0.13153341044116409
1.0342427830414644,0.40000000000000002,Y,1.2729535564731691,0.42671508009767001,0.13153341044116409
0.54444405432251108,0,N,1.5958581976313195,0.3951379559291347,0.65766705220582056
0.83468688450282469,0.40000000000000002,Y,0.66260778965978762,0.69377911250701463,0.13153341044116409
0.20022563244299549,0,N,1.4750022697990059,0.092345547666627406,0.13153341044116409
0.1240247971029457,0,Y,1.3046840703442015,0.14307408490815851,0.13153341044116409
0.093018597827209296,0,N,1.8637010647191488,0.099088031268091806,0.52613364176465638
0.68981351900687371,0.40000000000000002,Y,0.85905700053779477,0.78778783099033522,0.39460023132349231
0.60418059784714484,0,N,0.85672387451786614,0.61081471641588492,0.26306682088232819
0.1444888886249317,0,Y,1.3994089867533119,0.14035844521867491,0.26306682088232819
0.59340904421875407,0,Y,1.0415074552962296,0.12480993494271821,0.52613364176465638
0.34106819203310068,0,N,1.1502311278249129,0.25536134826106849,0.39460023132349231
0.16654049754983549,0,N,0.43862769174661981,0.24974450141306981,0
0.52710538768751936,0,N,0.1889832076142352,0.28247575380338669,0.13153341044116409
0.48933983696967231,0,N,2.0223536340743093,0.6950221460435414,0
0.15503099637868209,0,N,0.86558975339359556,0.14881138652403739,0
0.33176633225037971,0,N,2.0330860137659821,0.43596361955100621,0
0.32816961313439441,0.80000000000000004,N,0.90105326889651405,0.43163768980670381,0.26306682088232819
0.58911778623899214,0.40000000000000002,Y,0.28744112565523178,0.44492493218631979,0.39460023132349231
0.75345064240039517,0,Y,0.49695584224484057,0.45988541435703362,0.13153341044116409
0.20154029529228679,0.40000000000000002,N,1.0181761950969412,0.22339638211545779,0.39460023132349231
0.077515498189341003,0.80000000000000004,Y,0.77506446382035699,0.1040603891691851,0
0.48343935724749959,0,N,1.0312417008085426,0.27463955582656968,0
0.0204144816031448,0.40000000000000002,N,0.44142744297053449,0.068359013084426601,0.13153341044116409
0.143825355960431,0,N,0.4087636786915308,0.20991887341208809,0
0.091573708940959897,0,N,0.67427341975943178,0.048785448936383299,0.13153341044116409
0.43408678986031002,0.40000000000000002,Y,0.62201139691302587,0.22339638211545779,0.65766705220582056
0.59367569753252536,0,N,2.0186206324424232,0.30017417657726608,0.13153341044116409
0.27905579348162779,0,N,0.31403876228242039,0.1239497461885624,0.26306682088232819
0.19447708309727399,0.40000000000000002,N,0.29770688014291857,0.27083989781116041,0.13153341044116409
0.061857367555094099,0,N,0.57581550171843499,0.044317807700457297,0
0.564312826818403,0,Y,1.6485868456817103,0.24654346257227719,0.26306682088232819
0.58911778623899214,0,N,2.0204871332583663,0.5963213600725602,0
0.1093898710447981,0,Y,0.48762333816512532,0.13472973935637719,0.13153341044116409
0.49974551744660939,0,N,1.4978669047943085,0.41148527150787551,0.26306682088232819
0.062012398551472801,0,N,0.70180430679459183,0.1594663752392409,0
0.3478771533940524,0.40000000000000002,N,1.1245667416056959,0.1819211577669807,0.39460023132349231
0.55811158696325569,0,N,1.0853702244708914,0.56648736183599191,0
0.36277253152611622,0,Y,1.825437797992316,0.32627221238465998,0.52613364176465638
0.37728343278716081,0.80000000000000004,Y,0.76619858494462767,0.0978549175359789,0.39460023132349231
0.1155197966416112,0,N,1.6462537196617819,0.11713014170165641,0
0.16439176794002699,0,N,1.5132655365258385,0.21329011521282029,0.26306682088232819
0.4000047756164205,0,N,1.2934850654485428,0.23003944391779879,0.13153341044116409
0.52617520170924725,0,N,1.4255399981765149,0.70505845222031416,0.13153341044116409
0.27905579348162779,0,Y,1.1376322473172973,0.14881138652403739,0.52613364176465638
0.1085216974650775,0,Y,0.1213225530362991,0.14556858008571361,0.52613364176465638
0.98728079361843402,0,Y,1.0769709707991475,0.34956652362277679,0.26306682088232819
0.21704339493015501,0,N,1.5725269374320312,0.17012136395444441,0.26306682088232819
0.71730051466481415,0.80000000000000004,N,1.0690383423313894,0.46119057719488787,0.52613364176465638
0.95902174359852776,0.80000000000000004,N,1.0233090723407845,0.43264123092238638,0.13153341044116409
0.36423912475185849,0.40000000000000002,N,0.30890588503857702,0.47502005249245349,0.13153341044116409
0.074290853464664394,0,N,1.2626878019854826,0.100957653352582,0.9207338730881488
0.27905579348162779,0,N,1.5043996576501093,0.14588646133692421,0.65766705220582056
0.3036127033080111,0,N,1.838036678499932,0.0843699503330501,0.13153341044116409
0.17467652423978869,0.40000000000000002,N,0.52821973091188701,0.1095895986473638,1.8414677461762972
0.12693937983486489,0,N,1.1968936482234891,0.12628671785542839,0.52613364176465638
0.48933983696967231,0,N,0.28090837279943098,0.27174692594254768,0.13153341044116409
1.0542107753750387,0,Y,1.9178295883814975,0.70517510315341914,0.13153341044116409
0.2318767606636673,0,N,0.5632166212108195,0.36099078198251028,0.39460023132349231
0.49974551744660939,0.80000000000000004,N,1.0177095698929557,0.510327843555476,0.13153341044116409
1.0852169746507749,0.40000000000000002,N,1.1082348594661939,0.89466134243824202,0.78920046264698474
0.68734542554452505,0,N,1.476868770614949,0.5756364794902048,0.39460023132349231
0.15850369069756459,0.40000000000000002,N,0.70273755720256348,0.16244977506289771,0
0.160965582920058,0,N,1.4404720047040591,0.091998503682140506,0.13153341044116409
0.37728343278716081,0,N,1.3373478346232046,0.44606653012884201,0.26306682088232819
0.41845346418548368,0,Y,0.84599149482619362,0.51448386867982121,0.26306682088232819
0.1240247971029457,0,Y,0.8366589907464782,0.46579761778757428,0
0.4709221545998849,0,N,1.0466403325400728,0.34460766560588568,0
0.28069912204324188,0,N,0.3051728834066908,0.27734617073158668,0.26306682088232819
0.26943146922643929,0.40000000000000002,Y,1.2384232913782225,0.18031608866185339,0.39460023132349231
0.43408678986031002,0,Y,0.151186566091388,0.18610388431974759,0.13153341044116409
0.098847763291047705,0,Y,1.0228424471367989,0.124586179955944,0.65766705220582056
0.2821564134092015,0,N,0.3756332892085415,0.2279166803582714,0.26306682088232819
0.48933983696967231,0,N,0.92251802827985918,0.1468985051421042,0.52613364176465638
0.16495298014691781,0,N,1.6415874676219242,0.4710185674789738,0.13153341044116409
1.0342427830414644,0,Y,0.84645812003017928,0.3938632237694818,1.183800693970477
0.52617520170924725,0,N,1.8977647046101096,0.66978758073010924,0.26306682088232819
0.54459288407903461,0.80000000000000004,N,0.92251802827985918,0.34579035988097878,0
0.23874773442317049,0.80000000000000004,N,0.88565463716498349,0.16186376075253589,0.13153341044116409
0.27905579348162779,0,Y,1.06017246345566,0.23271950656438539,0.26306682088232819
0.1444888886249317,0,Y,2.0914141642642026,0.12025599886689289,0.13153341044116409
0.58911778623899214,0,N,0.1815172043504629,0.74549135125540111,0
0.38757749094670541,0,N,1.4862012746946642,0.23937890248076091,1.0522672835293128
0.1240247971029457,0.80000000000000004,N,0.75919920688484122,0.1239497461885624,0.78920046264698474
0.1240247971029457,0,N,2.111012422831605,0.14881138652403739,0
0.68523700399377507,0,N,2.018154007238437,0.39121262219615388,0
0.68270999875280247,0,N,1.0643720902915319,0.34300833954541882,0.13153341044116409
0.2318767606636673,0.40000000000000002,N,0.81239448013921822,0.12611368066565631,1.0522672835293128
0.34044806804758598,0,N,1.9738246128597892,0.2123862196512479,0
0.53115479731293047,0,Y,1.3424807118670483,0.16867523547492241,0.13153341044116409
1.0235611473909731,0,Y,0.87538888267729664,0.38991021900313649,0.13153341044116409
0.1058799692867847,0,N,1.4535375104156605,0.21915995436586511,0
0.2204168694113551,0.80000000000000004,Y,0.52821973091188701,0.30203880146705159,0.13153341044116409
0.27905579348162779,0,N,0.47082483082163767,0.13525049179559651,0.13153341044116409
0.60046605517391172,0,Y,1.275286682493098,0.27582284678162761,0.52613364176465638
0.1240247971029457,0,N,2.013021129994593,0.10619135707822749,0
0.093018597827209296,0.40000000000000002,Y,0.094258291205124606,0.14881138652403739,0
0.41996036547028448,0.40000000000000002,Y,1.6014577000791486,0.27779368070513533,0
0.093018597827209296,0,N,0.2193138458733099,0.1189773882874692,0
0.1444888886249317,0,Y,0.086792287941352395,0.1685018253601723,0
0.093018597827209296,0,N,0.40129767542775868,0.084881379647820401,0.52613364176465638
0.63761148190624384,0.80000000000000004,Y,1.0368412032563716,0.45917021883430748,0.26306682088232819
0.26943146922643929,0,N,1.852968685027476,0.24054101129707089,0.65766705220582056
0.3445408863519831,0.40000000000000002,N,1.7087814969958746,0.29199526054570651,0.13153341044116409
0.37207439130883718,0,N,1.9224958404213557,0.197519938329966,0.26306682088232819
0.34044806804758598,0,N,1.4754688950029915,0.2974841195412703,0.13153341044116409
0.43592235685743358,0.40000000000000002,Y,0.90431964532441445,0.2156395425739501,0.13153341044116409
0.49142345356100181,0,N,1.8744334444108215,0.41854056458085032,0.13153341044116409
0.1061652263201215,0,N,1.0928362277346635,0.13162700353977411,0.39460023132349231
0.58911778623899214,0.80000000000000004,N,0.60614613997750999,0.1959177034546711,0.13153341044116409
0.3297664323970948,0,N,1.7573105182103941,0.3467748818227856,0
0.093018597827209296,0,Y,1.6373878407860525,0.065939177487458603,0.26306682088232819
0.48933983696967231,0,N,1.4764021454109633,0.22722057859441669,1.0522672835293128
0.66461168023555517,0,N,1.2519554222938098,0.66896117897895635,0
0.52617520170924725,0,N,0.96731404786249242,0.44640551893380509,0.13153341044116409
0.43408678986031002,0,N,1.2566216743336671,0.22339638211545779,0.52613364176465638
0.093018597827209296,0,N,1.4521376348037034,0.1189773882874692,0.13153341044116409
0.074290853464664394,0,Y,0.23237935158491141,0.084071610350684403,0.39460023132349231
0.34416261072081922,0,Y,1.0116434422411404,0.2001888132272138,0.13153341044116409
0.66278851571814201,0,N,1.5239979162175112,0.39700183496896441,0
0.093018597827209296,0.80000000000000004,N,0.97478005112626476,0.14881138652403739,0.13153341044116409
0.69143824384892238,0.40000000000000002,Y,0.85019112166206545,0.43409899466122071,0.26306682088232819
0.1240247971029457,0,N,0.2015820881218508,0.18610388431974759,0.13153341044116409
0.20964221516303669,0,Y,1.8669674411470487,0.15609453675854401,0.78920046264698474
0.4709221545998849,0,Y,0.45262644786619283,0.20087171344684879,0.9207338730881488
0.34044806804758598,0,N,0.82406011023886239,0.2974841195412703,0
0.15935636117764729,0,N,1.6597858505773693,0.32672322785300129,0
0.36408719437540749,0.40000000000000002,N,1.4997334056102516,0.27118194460094269,0.13153341044116409
0.48933983696967231,0.40000000000000002,Y,1.481068397450821,0.27779368070513533,0.52613364176465638
0.1853860654696281,0.80000000000000004,Y,0.98364593000199441,0.074002635945842596,0.26306682088232819
0.0918403622547313,0,N,1.0051106893853397,0.1178436963544796,0.65766705220582056
0.1240247971029457,0.40000000000000002,N,0.71346993689423599,0.074226390932616904,0.26306682088232819
0.61826361355818449,0,N,0.60847926599743873,0.5202446645693114,0
0.34053798602548557,0,N,0.64720915792825706,0.31883586456920859,0.13153341044116409
0.27905579348162779,0,N,1.0326415764204999,0.37256637329829878,0
0.37191315907260331,0.40000000000000002,N,1.0139765682610691,0.21502294841539579,0.13153341044116409
0.13365842321791699,0,N,1.3121500736079734,0.263707110927766,0.13153341044116409
0.38225682715098902,0,N,1.5487290520287569,0.49669072296154071,0
0.63497595496780634,0,N,1.5823260667157319,0.2666432238642179,1.3153341044116411
0.24672873011674501,0,N,1.1726291376162297,0.26687645114543229,0.13153341044116409
0.4546501012199784,0,Y,0.76526533453665602,0.29170132107808072,0.52613364176465638
0.071835162482026094,0,N,0.68080617261523224,0.070322388508375105,0
0.78568468716745077,0,N,0.33643677207373718,0.35683028175842979,0.13153341044116409
0.2055897049176979,0.40000000000000002,N,0.3266376427900361,0.33442271153289921,0.39460023132349231
0.43718740978788367,0.40000000000000002,N,0.29397387851103252,0.28119975369880867,0
0.13425684286393871,0,N,2.2160030937284025,0.079149000641650605,0.39460023132349231
0.078690633141891397,0,N,2.166074196901925,0.15486157219642219,0.65766705220582056
0.51131703101631432,0.40000000000000002,Y,0.91085239818021524,0.043126461565875497,0
0.64197405414434006,0,N,0.83339261431857781,0.64717937686643789,0.26306682088232819
0.47439484891876738,0.40000000000000002,N,0.6962048043467628,0.26980480724234268,0.39460023132349231
0.17467652423978869,0.40000000000000002,Y,0.21558084424142379,0.2245355187531255,0
0.27429324127287469,0,N,1.7129811238317465,0.2619248278731135,0
0.21924173445880471,0,N,0.38636566890021418,0.2002974089807949,0.26306682088232819
0.31006199275736429,0,Y,1.2724869312691836,0.2340513708306613,0.26306682088232819
0.14262851666838749,0,N,1.819838295544487,0.13886674530684651,0.13153341044116409
0.13395918335089169,0.40000000000000002,N,1.9826904917355197,0.1130190913296529,0.13153341044116409
0.54600366614608065,0,Y,1.5165319129537391,0.34663876420583117,0.52613364176465638
0.58142824881860955,1.2,N,1.1819616416959449,0.49070900631510878,0
0.36408719437540749,0.40000000000000002,N,1.1306328692575107,0.31643870281090042,0.26306682088232819
0.15850369069756459,0,N,0.28930762647117481,0.3035504155727029,0.26306682088232819
0.095350264012744601,0,N,0.24684473290847009,0.1143390219966343,0
0.52617520170924725,0,Y,1.4479380079678317,0.2974841195412703,0
0.1637747445744398,0.40000000000000002,N,1.0503733341719588,0.1612079348863005,0
0.4147389215122505,0,N,1.0186428203009268,0.2818082180928434,0.26306682088232819
0.52617520170924725,0,N,1.8772331956347359,0.6378758682713509,0
0.34416881196067428,0,N,1.5519954284566571,0.20019216955201541,0.39460023132349231
0.093018597827209296,0,N,1.4983335299982941,0.084881379647820401,0
0.17053409601655031,0,N,1.9817572413275475,0.12722096951020651,0.13153341044116409
0.83419078531441282,0,Y,0.82639323625879146,0.46213467406908409,0
1.0342427830414644,0,Y,1.0004444373454819,0.67396829348799514,0.39460023132349231
0.084820558738704505,0,N,0.4008310502237728,0.061556861486488999,0.13153341044116409
0.1612322362338294,0,N,1.1595636319046283,0.23085488167459989,0.13153341044116409
0.37517501123641078,0,Y,0.2552439865802138,0.27880236818551363,0
0.38527062972059051,0,Y,1.1110346106901088,0.24997847454423999,0
0.10643187963389281,0.40000000000000002,Y,0.4269620616469757,0.078356982573465295,0
0.32816961313439441,0.80000000000000004,Y,0.8291929874827062,0.2156395425739501,0.52613364176465638
0.37728343278716081,0.40000000000000002,N,0.41249668032341702,0.17821144925625459,0
0.077800755222677806,0.80000000000000004,N,0.8179939825870477,0.086885925989335394,0.39460023132349231
0.27905579348162779,0,N,1.3807439785938811,0.29798137770687833,0.9207338730881488
0.54008458270434256,0.40000000000000002,Y,0.70087105638662039,0.28583953710455978,0.39460023132349231
0.153765943448232,0,N,1.5795263154918175,0.098411843698059998,0.13153341044116409
1.4988117674097508,0.40000000000000002,N,0.56274999600683373,0.66872437161795362,0.13153341044116409
0.43408678986031002,0,Y,0.88938763879686977,0.37256637329829878,0.13153341044116409
0.3036127033080111,0,Y,0.37143366237266962,0.0843699503330501,0.52613364176465638
0.1093898710447981,0,Y,1.6182562074226361,0.096133048327755294,0.26306682088232819
0.071314258334193706,0,Y,1.4110746168529562,0.040663142916477699,0
0.74763698003619472,0,Y,1.3060839459561586,0.46789532078858309,0.39460023132349231
0.15472093438592471,1.2,N,1.5762599390639171,0.2123862196512479,0
0.093018597827209296,0,N,0.85765712492583779,0.19853474177998279,0.13153341044116409
0.43408678986031002,0.40000000000000002,N,0.94958229011103357,0.2482580224509327,0.13153341044116409
0.58911778623899214,0,N,1.2230246596466925,0.55212281378005357,0
0.64504056725271042,0.80000000000000004,N,0.7148698125061933,0.95624222029331163,0.13153341044116409
0.15935636117764729,0,N,0.089592039165266896,0.18280722751460679,0
0.85670128598859752,0,N,0.81752735738306193,1.4232203693911067,0.26306682088232819
0.062012398551472801,0.40000000000000002,N,1.3303484565634185,0.074226390932616904,0.13153341044116409
0.61750086105600122,0,Y,1.0797707220230623,0.38963514953939538,0.13153341044116409
1.0542107753750387,0,Y,0.16145232057907499,0.57974693318224357,0.52613364176465638
0.16052219427041509,0,Y,0.83945874197039294,0.13127540987055611,0.26306682088232819
0,0.40000000000000002,N,0.66354104006775905,0.052916413502209797,0.13153341044116409
0.83765107715358511,0.40000000000000002,Y,1.147898001804984,0.49715173281929131,0.26306682088232819
0.39769791439030572,0.40000000000000002,N,0.58888100743003646,0.25745189110250039,0.39460023132349231
0.52710538768751936,0,N,0.21138121740555199,0.22339638211545779,0.13153341044116409
0.093018597827209296,0.80000000000000004,N,0.71720293852612205,0.099088031268091806,0.13153341044116409
0.23760670628982339,0,Y,1.7829749044296117,0.080409487067145596,0
1.1570273321733806,0.80000000000000004,Y,0.75639945566092648,0.237791286264602,0.26306682088232819
0.32816961313439441,0.40000000000000002,N,0.38543241849224252,0.28763890012320281,0
0.17372463392202361,0,N,0.6248111481369405,0.1966323022974325,0.39460023132349231
0.15410701164026519,0,N,2.0461515194775841,0.29649959759946348,0
0.045740345171566298,0.80000000000000004,N,0.37470003880057001,0.1227165578714538,0.39460023132349231
0.1118951719462776,0.40000000000000002,Y,1.1394987481332404,0.062140936586965498,0.26306682088232819
0.1444888886249317,0,N,0.1740512010866907,0.14035844521867491,0.52613364176465638
0.37207439130883718,0,Y,0.7293351938297522,0.113712582618662,0
0.85670128598859752,0,N,1.2934850654485428,0.2665624483139924,0.78920046264698474
0.71190233537090841,0,Y,0.42276243481110382,0.46991940839894297,0.26306682088232819
1.0342427830414644,0,Y,0.14512043843957309,0.78326283389279938,0
0.21468692378519899,0,Y,1.4880677755106071,0.10332759158749941,0.26306682088232819
0.4095546849933473,0,Y,1.9514266030684728,0.3113364924324824,0.26306682088232819
0.2466295102790626,0.40000000000000002,N,0.33970314850163758,0.13321118884613589,0.13153341044116409
0.1240247971029457,0.80000000000000004,N,1.3681450980862655,0.13776176859715961,0.13153341044116409
0.7728977305861372,0.40000000000000002,N,1.2211581588307494,0.42937030594072462,0.26306682088232819
0.20154029529228679,0.40000000000000002,N,0.83012623789067741,0.22339638211545779,0.13153341044116409
0.2821564134092015,0,Y,1.3746778509420663,0.25074423869397722,0.65766705220582056
0.33894426738271272,0,N,0.81752735738306193,0.29627837850253941,0.26306682088232819
0.52617520170924725,0,N,1.8086392906488284,0.66978758073010924,0.39460023132349231
0.18603719565441859,0,N,0.28090837279943098,0.1736730268595123,0.13153341044116409
0.093018597827209296,0,N,0.15351969211131691,0.099088031268091806,0.26306682088232819
0.2480495942058914,0.40000000000000002,Y,1.0354413276444143,0.16745763542189249,0.52613364176465638
0.71190233537090841,0.40000000000000002,Y,0.46242557714989402,0.59532691832633977,0
0.71190233537090841,0,Y,1.2570882995376531,0.39676502760796151,0.39460023132349231
0.43408678986031002,0,N,0.56834949845466287,0.44715136888971918,0.39460023132349231
0.32629683869813991,0,N,1.7694427735140243,0.2452092861711378,0.26306682088232819
0.32816961313439441,0,N,0.66680741649565944,0.14364018502469739,0.26306682088232819
0.89917977899635648,0.40000000000000002,N,0.47455783245352379,0.37256637329829878,0.13153341044116409
0.89297853914120917,0.40000000000000002,N,0.43162831368683341,0.55529961249727899,0.13153341044116409
1.1007200742886432,0,Y,1.303284194732244,0.3885488936636019,0
0.85670128598859752,0,N,1.2934850654485428,0.60974665927901572,0.39460023132349231
0.063748745710914101,0.40000000000000002,N,0.78999647034790155,0.090814093952148803,0.39460023132349231
0.2318767606636673,0,N,1.6905831140404295,0.2104285126869643,0.26306682088232819
0.1240247971029457,0,N,1.857168311863348,0.471698335128794,0.13153341044116409
0.46199236920847281,0,Y,1.0751044699832044,0.21525983036139421,0.13153341044116409
0.70046414845808924,0.40000000000000002,N,0.93511690878747478,0.50236768531598608,0.39460023132349231
1.0542107753750387,0.40000000000000002,Y,0.60847926599743873,0.57974693318224357,0
0.15503099637868209,0,N,1.7801751532056969,0.14881138652403739,0.39460023132349231
0.062012398551472801,0,Y,0.67613992057537486,0.089143390050900995,0
0.71314258334193781,0,Y,0.84272511839829334,0.5963213600725602,0
0.58911778623899214,0.80000000000000004,Y,0.81706073217907593,0.4258413914593121,0.26306682088232819
0.61826361355818449,0.40000000000000002,N,1.1054351082422793,0.78054629918336871,0.13153341044116409
0.38757749094670541,0,N,1.2981513174884007,0.25136575546224049,0.13153341044116409
0.27905579348162779,0,Y,0.68547242465508995,0.16538581341435399,0.52613364176465638
0.71190233537090841,0.40000000000000002,N,1.0079104406092545,0.89316964252641362,0.39460023132349231
0.1612322362338294,0.80000000000000004,Y,0.71953606454605101,0.17091062237779281,0
0.17467652423978869,0,Y,0.77319796300441412,0.16456373759294529,0.26306682088232819
0.53169430518032823,0.40000000000000002,N,0.89638701685665623,0.5202446645693114,0.26306682088232819
0.27905579348162779,0,N,0.2426451060725982,0.33866413647719651,0.52613364176465638
0.43408678986031002,0.40000000000000002,N,0.54408498784740278,0.22339638211545779,0.39460023132349231
0.27905579348162779,1.2,Y,0.57348237569850624,0.4968747241456648,0.52613364176465638
0.14799879038294511,0,N,1.5977246984472624,0.20468621387638081,0
0.2821564134092015,0,Y,0.77226471259644236,0.30096477753053508,1.0522672835293128
0.52710538768751936,0.80000000000000004,N,0.68500579945110429,0.20001898319225209,0
0.50775751933945978,0,N,0.74753357678519705,0.25883917202050077,0
0.31365251063349447,0,N,0.47875745928939561,0.18387961058122021,0.39460023132349231
0.8602514958056694,0.40000000000000002,Y,0.60054663752968052,0.26762990877089682,0.13153341044116409
0.27751788599755128,0,N,1.5244645414214972,0.61810017878525492,0
0.63705957155913584,0,N,1.6849836115926005,0.3567576359727237,0
0.2325464945680232,0,N,0.53241935774775873,0.253230380352026,0
0.17554469781950929,0,Y,0.18245045475843441,0.2480690986570997,0.13153341044116409
0.086817357972061998,0,N,1.9854902429594337,0.094115747951994205,0.65766705220582056
0.16495298014691781,0.80000000000000004,Y,0.76806508576057064,0.17422555250685351,0.39460023132349231
0.33323602609604969,0.40000000000000002,Y,1.0872367252868345,0.3501133062254575,0.39460023132349231
0.50775751933945978,0.80000000000000004,Y,0.34390277533750951,0.43163768980670381,0
0.92771788480974438,0.80000000000000004,N,1.1814950164919591,0.82328350165725261,0
0.1240247971029457,0,N,1.4964670291823512,0.13776176859715961,0.26306682088232819
0.33946207091061759,0,Y,1.3345480833992904,0.35610397307136049,0.13153341044116409
0,0.80000000000000004,N,0.9869123064298948,0.0369338931369066,0
0.27905579348162779,0,N,1.3826104794098244,0.16538581341435399,0.13153341044116409
0.89917977899635648,0,N,1.7638432710661949,0.74549135125540111,0.39460023132349231
0.1240247971029457,0.80000000000000004,N,1.2290907872985073,0.082513604377775204,1.183800693970477
0.040828963206289703,0.80000000000000004,N,0.64067640507245638,0.057240926131595898,0.39460023132349231
0.85670128598859752,0,N,1.502999782038152,0.71143084507365395,0.78920046264698474
0.047377472493325197,0,N,1.2967514418764434,0.062491709821231901,0.13153341044116409
0.0155030996378682,0,N,2.1539419415982954,0.1115188887283271,0
0.58911778623899214,0,N,1.0247089479527418,0.4258413914593121,0.13153341044116409
0.021642327094463999,1.2,N,1.002310938161425,0.12628671785542839,0.13153341044116409
0.27152748829747908,0,N,0.9444494128671902,0.19115209516135731,0.26306682088232819
0.43408678986031002,0,N,0.93138390715558883,0.37256637329829878,0
0.43408678986031002,0,N,0.47082483082163767,0.27933512880902323,0
0.52617520170924725,0,N,1.6504533464976536,0.38258209401628829,0.26306682088232819
0.52710538768751936,0.40000000000000002,N,1.1814950164919591,0.44715136888971918,0
0.20154029529228679,0,N,1.8818994476745936,0.22339638211545779,0.39460023132349231
0.67506697063133358,0,N,1.9028975818539533,0.37707458877182659,0.13153341044116409
0.5922928210448275,0.40000000000000002,N,0.38916542012412869,0.29950887841659057,0.52613364176465638
0.1444888886249317,0,Y,2.0988801675279749,0.23416973721866491,0.26306682088232819
0.1240247971029457,0,Y,0.13858768558377241,0.10619135707822749,0.13153341044116409
0.1085216974650775,0,Y,0.083525911513451997,0.1338943874057533,0.65766705220582056
0.1485817069293289,0,Y,1.4260066233805009,0.18746588092424249,0
0.15850369069756459,0.40000000000000002,Y,0.65234203517210054,0.18198679256310121,0.26306682088232819
0.54075431660869844,0,N,1.783441529633597,0.29227167253936831,0
0.18117542360798311,0,N,0.40549730226363062,0.113063618572021,0
0.1240247971029457,0,N,1.8618345639032059,0.20682195522514121,0
0.3036127033080111,0,Y,0.3882321697161572,0.1146301272344276,0.26306682088232819
0.030054308957971301,0,N,1.9574927307202881,0.018472167518144698,0
1.2976466471287005,0,N,1.4862012746946642,0.53231751405070782,0.26306682088232819
0.21704339493015501,0,N,1.4064083648130985,0.23831338123374191,0.26306682088232819
0.15503099637868209,0.40000000000000002,Y,0.56881612365864853,0.17864538476060551,0.26306682088232819
0.2480495942058914,1.2,Y,0.91458539981210119,0.1115188887283271,0.13153341044116409
1.2092417717537207,0.40000000000000002,Y,1.0424407057042009,0.22913368373133661,0.9207338730881488
0.66973390435590685,0,Y,1.1488312522129556,0.48124737752936791,0.52613364176465638
0.093018597827209296,0,N,0.16238557098704651,0.16538581341435399,0
0.24684345305406519,0,N,1.9798907405116049,0.16673229633976591,0
0.34106819203310068,0,N,1.4054751144051267,0.17864538476060551,0.65766705220582056
0.19223843550956579,0.80000000000000004,Y,0.7214025653619941,0.1409603461330976,0.65766705220582056
0.093018597827209296,0,N,1.8408364297238464,0.099088031268091806,0.13153341044116409
0.093018597827209296,0.40000000000000002,Y,0.67987292220726092,0.099088031268091806,0
0.2356471144955968,0.80000000000000004,N,0.50255534469266983,0.21345174089826699,0.13153341044116409
0.062012398551472801,0.40000000000000002,N,1.4264732485844862,0.14881138652403739,0
0.64988373557958046,0,N,1.5389299227450557,0.2336230292009798,0
0.080430080921260305,0,N,1.3756111013500376,0.12728831976122559,0.39460023132349231
0.13425684286393871,0,N,0.44749357062234951,0.099025901966764196,0
0.1772221332003267,0,N,1.13623237170534,0.50053185023449887,0
0.27905579348162779,0,N,1.610323578954878,0.23271950656438539,0.39460023132349231
0.2115614988982048,0,N,0.57954850335032126,0.20803187302362519,0
0.58911778623899214,0,Y,0.62901077497281233,0.14881138652403739,0
0.34416261072081922,0,N,1.6476535952737394,0.45087316016973111,0.39460023132349231
0.26710910490068662,0.40000000000000002,Y,0.60427963916156691,0.35819757389761159,0.39460023132349231
0.16495298014691781,0.40000000000000002,N,0.58841438222605069,0.1567671442487874,0.39460023132349231
0.73645924519729167,0,N,1.0634388398835604,1.1534712771404712,0.26306682088232819
0.85670128598859752,0,N,1.7316461319911771,0.4741676951628348,0.13153341044116409
0.8217914062240459,0.80000000000000004,Y,0.3541685298251962,0.37952903180674907,0.39460023132349231
0.34106819203310068,0,N,1.5211981649935966,0.081006838296837302,0.26306682088232819
0.37958719339334812,0.40000000000000002,N,0.55948361957893333,0.42906614832870271,0.13153341044116409
0.58911778623899214,0,N,1.0993689805904645,0.5963213600725602,0
0.15472093438592471,0,N,0.1045240456928114,0.1651096251756789,0
0.3445408863519831,0.40000000000000002,N,0.60941251640541028,0.22548476199201761,0.26306682088232819
1.4571828442621471,0,Y,1.1973602734274751,0.79515667938477652,0
0.3445408863519831,0,Y,1.2930184402445573,0.22548476199201761,0.26306682088232819
0.035099017580133597,0,Y,1.8441028061517468,0.1056515108801368,0.13153341044116409
0.38953088150107668,0,N,1.7587103938223514,0.36092581845135019,0.13153341044116409
0.42229513227574739,0.40000000000000002,N,0.7862634687160156,0.15541432159875021,0
0.1506808266202963,0,Y,0.44142744297053449,0.15572914486514161,0
0.074290853464664394,0,N,1.9812906161235619,0.12628671785542839,0
0.24314441348046989,0,N,1.2099591539350909,0.32937420235130721,0.13153341044116409
1.0219643281282726,0,N,0.94491603807117597,0.56250952026611478,0.52613364176465638
0.43408678986031002,0.40000000000000002,N,0.46195895194590819,0.44715136888971918,0.13153341044116409
0.1085216974650775,0,N,1.8296374248281879,0.27933512880902323,0.52613364176465638
0,0.40000000000000002,N,1.2066927775071905,0.074226390932616904,0.13153341044116409
1.4548108700175533,0.40000000000000002,N,1.0055773145893252,0.2974841195412703,1.183800693970477
0.13937286574443519,0.80000000000000004,N,0.40363080144768743,0.20456367072862411,0.39460023132349231
0.43408678986031002,0,N,1.3905431078775821,0.37256637329829878,0.26306682088232819
0.1800467979543463,0,Y,0.40596392746761628,0.063102038840156499,0.26306682088232819
0.43408678986031002,0,N,1.9392943477648432,0.74549135125540111,0
0.25115021413346511,0,N,1.7050484953639884,0.35686429251641938,0.13153341044116409
0.13952789674081389,0.40000000000000002,N,1.0989023553864783,0.1363805290638021,0.13153341044116409
0.37299217480739888,0.40000000000000002,N,0.88892101359288378,0.19400392705279079,0.39460023132349231
1.1310999483390096,0,Y,0.750799953213097,1.1178136824481248,0
0.64651336171830787,0,N,1.3541463419666928,0.70823450508758357,0
0.24978594136533261,0.40000000000000002,N,1.056439461823774,0.4499358505301338,0
0.37728343278716081,0,N,1.3462137134989345,0.1960684397307613,0
0.1061652263201215,0.40000000000000002,Y,0.62247802211701142,0.1174856883756408,0.39460023132349231
0.74724940254524796,0,Y,2.00462187632285,0.23365181900927809,0.13153341044116409
0.3722232210653606,0,Y,1.1012354814064076,0.19363398547465741,0.26306682088232819
0.4709221545998849,0,N,1.2514887970898241,0.16062564982571831,0.26306682088232819
0.2058005470727729,0.80000000000000004,N,0.50862147234448474,0.15359690901117409,0.13153341044116409
0.15503099637868209,0,Y,1.5165319129537391,0.17864538476060551,0
0.21396757996200191,0.40000000000000002,N,0.21884722066932419,0.18379174945641349,0.26306682088232819
0.18454889808918321,0,N,1.5491956772327429,0.1033443732115074,0.13153341044116409
0.21055379742174329,0.40000000000000002,Y,0.31077238585452011,0.12876793690376809,0
0.27905579348162779,0,N,0.49975559346875531,0.41400251510908598,0.13153341044116409
0.4649968699182917,0,Y,1.4204071209326712,0.39735096733332781,0
0.31006199275736429,0,N,2.0060217519348078,0.91123576932855876,0.13153341044116409
0.093018597827209296,0.40000000000000002,N,0.81519423136313296,0.14881138652403739,0
0.38225682715098902,0,N,1.4246067477685431,0.2481660591513685,0
0.48933983696967231,0.40000000000000002,N,1.2029597758753043,0.83409832601800871,0.26306682088232819
0.3228303456191125,0.80000000000000004,N,0.78579684351202961,0.18878566242123271,0.26306682088232819
0.37191315907260331,0.40000000000000002,N,1.4073416152210698,0.32271376224499337,0.39460023132349231
0.67506697063133358,0.40000000000000002,Y,0.46989158041366619,0.28271629041416901,0.26306682088232819
0.89917977899635648,0,N,1.5048662828540948,0.37256637329829878,0.39460023132349231
0.68213638406620136,0,N,0.33083726962590798,0.42850511999186408,0.39460023132349231
0.074290853464664394,0.40000000000000002,Y,0.77133146218847104,0.062964056598312404,0.52613364176465638
0.67845594821217148,0,Y,1.8907653265503237,0.37888618372974658,0.13153341044116409
0.18496128053955049,0,N,2.0736824065127442,0.1728103768005019,0.13153341044116409
0.0040928183043972,0.40000000000000002,N,1.2132255303629913,0.0334134813449916,0.26306682088232819
0.31936075192015762,0.40000000000000002,N,1.4633366396993617,0.42104289118294252,0
0.67506697063133358,0.40000000000000002,Y,0.63461027742064169,0.33933129926276179,0
0.24758450121675529,0.40000000000000002,N,1.2566216743336671,0.3347144880356529,0.13153341044116409
0.3854504656763898,0,N,1.4992667804062658,0.19999757729851739,0.26306682088232819
0.078067408536449098,0,N,2.1684073229218543,0.104591434337796,0.39460023132349231
0.30100508194892162,0,Y,1.9602924819442025,0.14485025199317261,0.13153341044116409
0.1012042344360037,0,N,2.1553418172102528,0.18671809175844289,0.13153341044116409
0.39377873080185261,0,N,1.5524620536606433,0.16994377707994129,0.13153341044116409
0.58911778623899214,0,N,1.9817572413275475,0.2127413934002543,0
0.71306196722382087,0.40000000000000002,N,1.2104257791390769,0.51102595911421178,0.26306682088232819
0.60789514052037819,0,N,0.30657275901864822,0.51193089886572252,0.13153341044116409
0.27905579348162779,0.40000000000000002,N,0.8254599858508197,0.1959177034546711,0.13153341044116409
0.58911778623899214,0,N,0.4577593251100362,0.29798137770687833,0.13153341044116409
0.074290853464664394,0,Y,1.0251755731567276,0.12628671785542839,0.65766705220582056
0.43408678986031002,0,N,1.7251133791353763,0.3992038823788055,0.39460023132349231
1.2092417717537207,0.40000000000000002,N,1.319616076871746,0.66261914221882223,0.52613364176465638
0.25425083406103871,0,N,2.0013554998949501,0.43669999721248021,0.26306682088232819
0.73645924519729167,0.40000000000000002,N,0.49975559346875531,0.52710648416372208,0.13153341044116409
0.68270999875280247,0.80000000000000004,Y,0.40036442501978697,0.34300833954541882,0.26306682088232819
0.093018597827209296,0.40000000000000002,N,0.3014398817748048,0.059309391814332799,0
0.48933983696967231,0,N,1.9313617192970849,0.50031555374728376,0
0.33504988875368019,0.80000000000000004,Y,0.87258913145338235,0.29315572849211341,0.13153341044116409
0.3036127033080111,0.40000000000000002,N,1.006510564997297,0.26794846128706779,0.26306682088232819
0.58911778623899214,0.80000000000000004,N,0.91598527542405839,0.1239497461885624,0
0.1444888886249317,0,N,1.7181140010755898,0.23416973721866491,0
0.29455889311949601,0,N,1.4675362665352336,0.22339638211545779,0
0.34106819203310068,0,N,1.955159604700359,0.22339638211545779,0.13153341044116409
0.034106819203309997,0.40000000000000002,Y,0.66540754088370202,0.057651964042300198,0.26306682088232819
0.17053409601655031,0,N,1.8207715459524587,0.2200061211408498,0.26306682088232819
0.29190476246149299,0,Y,1.4568038868435611,0.17225427107337229,0
0.15503099637868209,0,Y,1.9920229958152345,0.2482580224509327,0.26306682088232819
1.1831345519635508,0,Y,1.5921251959994331,0.97317450599247579,0.13153341044116409
0.48933983696967231,0,N,1.6756511075128853,0.41686986067960258,0.13153341044116409
0.32034364843719848,0,N,1.7097147474038461,0.2910783871949012,0
0.48765309972907223,0,Y,1.7041152449560171,0.49869258424321439,0
0.54880972718053478,0,N,0.35603503064113928,0.34832624973108711,0.26306682088232819
0.077515498189341003,0,N,1.7974402857531702,0.2266391885537816,0.13153341044116409
0.2954270666992167,0,N,1.3462137134989345,0.31373372877578631,0.13153341044116409
0.1240247971029457,0.80000000000000004,Y,0.52775310570790135,0.1239497461885624,0.26306682088232819
0.62841504320106045,0.40000000000000002,N,1.0144431934650551,0.31688718238939151,0.13153341044116409
0.89917977899635648,0,N,0.60147988793765217,0.20305504002279651,0.52613364176465638
0.15503099637868209,0.40000000000000002,Y,0.94024978603131837,0.14881138652403739,0.13153341044116409
0.20588116319088989,0,N,1.4134077428728848,0.37952761469183283,0.78920046264698474
0.66278851571814201,0.80000000000000004,N,0.27624212075957327,0.46322861219942352,0.39460023132349231
0.15813161630625569,0,N,2.0419518926417117,0.1974537814388764,0
0.2821564134092015,0,N,1.6863834872045578,0.21487236130929671,0.65766705220582056
0.15195518141052899,0,N,1.4684695169432052,0.2747108590823551,0.39460023132349231
0.058787753826796199,0,N,1.869767192370964,0.053640932149384798,0.13153341044116409
0.059135023258684499,0,N,1.2169585319948777,0.043008095177871901,0.9207338730881488
0.37056128878418121,0.40000000000000002,N,0.55015111549921791,0.24113269406709761,0.13153341044116409
0.11921263497535139,0,Y,0.66120791404783041,0.051262714979956797,0.52613364176465638
0.357690615464823,0,Y,1.0116434422411404,0.31130971641906519,0.39460023132349231
0.69143824384892238,0,N,1.9336948453170135,0.19273366999287339,0.65766705220582056
0.2041448160314486,0,Y,0.41156342991544548,0.093916829768751903,0.9207338730881488
0.45559889091781591,0,Y,1.5589948065164436,0.38981542147373982,0.13153341044116409
0.25425083406103871,0,N,0.051328772438434297,0.1711868852014635,0.13153341044116409
0.15503099637868209,0,Y,1.8338370516640601,0.17864538476060551,0.13153341044116409
0.27905579348162779,0,N,1.1581637562926708,0.18610388431974759,0.26306682088232819
0.57671530652869762,0,N,1.9010310810380104,0.36510787373915682,0.39460023132349231
0.093018597827209296,0.40000000000000002,Y,1.0219091967288272,0.065939177487458603,0.13153341044116409
0.15503099637868209,0,N,0.43816106654263409,0.14881138652403739,0.13153341044116409
0.52617520170924725,0,N,1.0247089479527418,0.66978758073010924,1.0522672835293128
0.093018597827209296,1.2,N,0.3271042679940217,0.10619135707822749,0.13153341044116409
0.71190233537090841,0.40000000000000002,Y,0.94258291205124722,0.44640551893380509,0.26306682088232819
0.33176013101052459,0,N,1.8347703020720316,0.2905178809530316,0
0.53443525319630336,0,N,1.825904423196302,0.67972230214288643,0
0.50388794566984785,0,N,0.57301575049452047,0.42853495399010072,0
0.27066241533768598,0,Y,0.36023465747701122,0.25880560877248471,0.26306682088232819
0.087859166267726704,0,Y,1.3550795923746639,0.094951099902618102,0
0.41002597922233852,0.40000000000000002,Y,0.73913432311345295,0.20766043974557991,0.65766705220582056
0.85670128598859752,0,Y,1.470336017759148,0.82093690852595536,0.13153341044116409
0.1240247971029457,0,N,1.3149498248318885,0.14881138652403739,0.26306682088232819
0.093018597827209296,0,N,1.3681450980862655,0.23271950656438539,0.13153341044116409
0.080430080921260305,0,N,1.7031819945480453,0.22302345713750071,0.26306682088232819
0.39005488626883672,0.80000000000000004,N,0.48155721051331041,0.50606978615716192,0.26306682088232819
0.074148224947996097,0,Y,0.41529643154733148,0.1008204169606938,0
0.40308059058457357,0.40000000000000002,Y,0.34670252656142397,0.2482580224509327,0.52613364176465638
0.038404278422927103,0,Y,0.28837437606320332,0.066427783793577999,1.3153341044116411
0.19355309835885701,0,N,1.2925518150405717,0.22471407523257139,0.13153341044116409
0.40616880803243688,0,N,0.99391168448968115,0.42028883687751328,0
0.0155030996378682,0,N,1.7055151205679742,0.1138020846133717,0.39460023132349231
0.077800755222677806,0.40000000000000002,N,0.33270377044185101,0.1043348619529615,0
0.66278851571814201,0.80000000000000004,Y,0.91178564858818645,0.55594604065406983,0
0.7215421627257349,0.40000000000000002,Y,0.90012001848854228,0.62386380890457749,0.13153341044116409
0.32816961313439441,0,N,0.40829705348754508,0.41106640217263413,0.39460023132349231
0.6118577327878173,0,Y,1.0699715927393612,0.1929414637905911,0.13153341044116409
0.43408678986031002,0.40000000000000002,N,1.638321091194024,0.2482580224509327,0.52613364176465638
0.22609720511867001,0,Y,1.3891432322656252,0.12333315203000809,0.52613364176465638
0.1444888886249317,0,N,2.0951471658960887,0.1792801776580841,0
0.084820558738704505,0,N,1.4894676511225649,0.092514631851633194,0.26306682088232819
1.2092417717537207,0,N,0.67100704333153138,0.85204131299243213,0.78920046264698474
0.33323602609604969,0,Y,1.1147676123219947,0.072656376775417503,0.52613364176465638
0.5136238922424291,0,N,1.654652973333526,0.32716648648180119,0
0.85670128598859752,0,Y,2.0111546291786517,0.85378876485414346,0
0.58911778623899214,0,N,1.788107781673455,0.67768680302820106,0
0.31936075192015762,0.40000000000000002,N,1.2832193109608561,0.1200417907595543,0.78920046264698474
0.27905579348162779,0,Y,0.1227224286482563,0.10619135707822749,0
0.27905579348162779,0,N,1.5333304202972269,0.049364750597141897,0.13153341044116409
0.15193037645110849,0.40000000000000002,N,1.1604968823125996,0.1463252448659885,0
0.081310656980691204,0,N,1.749844514946622,0.059680675922386899,0.26306682088232819
0.66278851571814201,0,N,0.84785799564213671,0.37051110915978158,0.39460023132349231
0.37207439130883718,0.40000000000000002,N,0.41249668032341702,0.64604471532850571,0
0.4709221545998849,0,Y,2.1712070741457681,0.30148687249967498,0
0.050651727136843003,0,N,1.1768287644521014,0.078212213097022407,0.52613364176465638
0.42492445797432982,0,Y,0.1777842027185767,0.1563178442353447,0.39460023132349231
0.1116223173926511,0.40000000000000002,Y,1.0755710951871902,0.068259591285303206,0.13153341044116409
0.091573708940959897,0,N,0.3952315477759436,0.10885038675605729,0.13153341044116409
0.9909798331920292,0,Y,0.61314551803729644,0.54594665405011478,0
0.74414878261767436,0.40000000000000002,N,1.2006266498553757,0.60113328564813617,0.13153341044116409
0.74414878261767436,0,N,0.93418365837950357,0.31041223516711358,0.13153341044116409
0.077515498189341003,0,N,1.2085592783231336,0.096325626786372395,1.0522672835293128
0.61197555634506506,0,N,0.30097325657081891,0.39059334297775838,0.13153341044116409
1.0072301822324428,0,N,1.7610435198422807,0.83212928213439519,0.13153341044116409
0.43408678986031002,0,N,1.3191494516677602,0.27933512880902323,0.13153341044116409
0.1240247971029457,0,N,2.0993467927319607,0.14881138652403739,0.13153341044116409
0.72480401488954238,0,N,1.1394987481332404,0.4541642231002026,0.52613364176465638
0.65113018479046492,0,N,1.4358057526642021,0.38123904200067349,0.65766705220582056
0.20154029529228679,0,N,1.4073416152210698,0.22339638211545779,0.13153341044116409
1.1831345519635508,0,N,1.4316061258283297,0.83409832601800871,0.39460023132349231
0.32816961313439441,0.40000000000000002,N,0.4722247064335951,0.28763890012320281,0.39460023132349231
0.15503099637868209,0,Y,1.2052929018952332,0.1594663752392409,0.39460023132349231
0.3445408863519831,0,Y,0.58794775702206503,0.18031608866185339,0.13153341044116409
0.0062012398551472003,0,N,1.7381788848469779,0.089143390050900995,0.26306682088232819
0.16495298014691781,0,N,1.8072394150368711,0.29425212792730721,0.39460023132349231
0.90228039892392997,0,N,0.87492225747331098,0.34502728079108308,0.9207338730881488
0.88987791921363546,0,N,0.43769444133864832,0.73803285169625898,0
0.43408678986031002,0.80000000000000004,Y,0.86652300380156722,0.65774426690696708,0
0.41077942986473892,0,N,1.7801751532056969,0.37918049612235039,0
0.18838746555951941,0.80000000000000004,N,0.85345749808996574,0.2107408000635056,0
0.74662617793980557,0,N,0.73913432311345295,0.2197100932933474,0.52613364176465638
0.40616880803243688,0,N,1.7885744068774403,0.20996511610935481,0
0.3445408863519831,0,N,2.0900142886522453,0.1502036646367424,1.0522672835293128
0.1240247971029457,0,Y,0.191316333634164,0.2660164115612676,0.13153341044116409
0.43408678986031002,0,Y,1.4017421127732406,0.20305504002279651,0.9207338730881488
0.22952649075856649,1.2,Y,0.4222958096071181,0.25032454892378431,0.26306682088232819
0.89917977899635648,0,Y,1.0783708464111048,0.74549135125540111,0
0.42947306740808039,0.40000000000000002,N,1.1115012358940943,0.44271206995211793,0
0.1240247971029457,0.80000000000000004,Y,1.2626878019854826,0.14881138652403739,0.26306682088232819
0.031006199275736401,0.40000000000000002,N,0.094724916409110502,0.059309391814332799,0.65766705220582056
0.88228140039108005,0,N,0.97524667633025064,0.21933149985572539,0.26306682088232819
0.27905579348162779,0,Y,0.3014398817748048,0.29798137770687833,0.26306682088232819
0.3212583313158327,0,N,0.29677362973494698,0.49809292087865942,0.39460023132349231
0.27905579348162779,0.40000000000000002,Y,0.97384680071829322,0.2127413934002543,0.13153341044116409
0.15503099637868209,0,N,1.5552618048845577,0.14881138652403739,0.26306682088232819
0.36423912475185849,0,Y,0.50162209428469828,0.379944321062202,0.13153341044116409
0.66278851571814201,0.80000000000000004,Y,0.7274686930138089,0.59568209207534617,0.13153341044116409
0.73645924519729167,0.40000000000000002,N,0.62387789772896884,0.9712875801890084,0.26306682088232819
0.86735501605974064,0.80000000000000004,Y,0.67054041812754539,0.61706874288122116,0.26306682088232819
0.19432205210089529,0,Y,0.28744112565523178,0.27065343532218178,0
0.43408678986031002,0,N,1.6131233301787926,0.37256637329829878,0.65766705220582056
0.51134803721559008,0.80000000000000004,Y,0.68547242465508995,0.37239162065362807,0
0.74414878261767436,0,Y,1.0377744536643434,0.46579761778757428,0.13153341044116409
0.076746544447302806,0,N,1.5244645414214972,0.086040654234297895,0
0.24184835435074409,0,Y,1.8030397882009996,0.5963213600725602,0.26306682088232819
0.37191315907260331,0.40000000000000002,Y,0.90665277134434319,0.19348481548347449,0.39460023132349231
0.3445408863519831,0.80000000000000004,Y,0.94958229011103357,0.2577480681199939,0.65766705220582056
0.062012398551472801,0.80000000000000004,N,0.58048175375829258,0.1362356104173679,0.26306682088232819
0.3445408863519831,0,N,1.4087414908330269,0.53103756094136334,0.26306682088232819
0.58911778623899214,0,N,1.0317083260125284,0.37256637329829878,0.9207338730881488
0.47813729717134879,0,N,1.5995911992632057,0.2307239850073369,0.26306682088232819
0.74879351126917959,0,N,1.3368812094192191,0.34069553341712439,0.78920046264698474
0.1557658433015171,0,N,1.0410408300922438,0.28043988176372331,0
0.34364170657298682,0,N,0.74193407433736769,0.25713013143151903,0.13153341044116409
0.3879743702974347,0,N,1.2225580344427067,0.2875991463205525,0.13153341044116409
0.24254909445437581,0.40000000000000002,N,0.54081861141950249,0.50582104519686455,0.13153341044116409
0.27905579348162779,1.2,N,0.92345127868783061,0.18610388431974759,0.13153341044116409
0.3117983399168055,0,Y,0.1707848246587903,0.18288845057480579,0.13153341044116409
0.58911778623899214,0.80000000000000004,N,1.0452404569281155,0.14881138652403739,0
0.46784633963173178,0,Y,0.49275621540896869,0.46117334806090621,0
0.066973390435590599,0,N,1.9808239909195764,0.18094029048995799,0
0.68981351900687371,0,N,0.80166210044754571,0.34642582404341771,0.39460023132349231
0.16495298014691781,0,N,0.35370190462121037,0.031066515288716401,0
1.269083736355892,0,N,1.3480802143148776,0.62511116837084835,0.13153341044116409
0.1240247971029457,0,N,2.1805395782254839,0.2482580224509327,0
0.044410179222637201,0,N,0.3177717639143065,0.069415658716970294,0
0.17178984708721759,0.40000000000000002,N,1.0835037236549483,0.2435529771740392,0
0.1240247971029457,0,Y,0.95518179255886282,0.14881138652403739,0.39460023132349231
0.17983595579927131,0,N,1.508599284485981,0.14454937612095681,0
0.57497895936925636,0,N,1.1968936482234891,0.60701185124566526,0.52613364176465638
0.16976514227451209,0,N,1.805372914220928,0.2191653990705433,0
0.093018597827209296,0,Y,0.075126657841708203,0.14881138652403739,0.39460023132349231
0.41996036547028448,0.80000000000000004,Y,0.46055907633395088,0.28511352675747281,0.26306682088232819
0.15472093438592471,0,N,2.0232868844822813,0.22302345713750071,0.13153341044116409
0.2204168694113551,0,N,1.642520718029896,0.35540302328279227,0.52613364176465638
0.1240247971029457,0,N,1.9514266030684728,0.2482580224509327,0.13153341044116409
0.37728343278716081,0.40000000000000002,Y,0.12692205548412819,0.15805030451294219,0
0.3445408863519831,0.40000000000000002,N,0.1035907952848399,0.31114950784853479,0.13153341044116409
0.3445408863519831,0,Y,0.49975559346875531,0.18031608866185339,0.26306682088232819
0.74414878261767436,0,Y,1.0186428203009268,0.62118300040803509,0.39460023132349231
0.3987738295051737,0.40000000000000002,Y,0.25337748576427083,0.34425144766694099,0
0.48933983696967231,0.40000000000000002,Y,0.73773444750149586,0.35726578354768801,0.13153341044116409
0.89917977899635648,0,N,0.98037955357409401,0.37256637329829878,0.13153341044116409
0.160965582920058,0,N,1.4372056282761587,0.1843556120230847,0.26306682088232819
0.1444888886249317,0,N,2.1544085668022808,0.12025599886689289,0.39460023132349231
0.184499288170342,0.80000000000000004,N,0.64254290588839968,0.11484038233699979,0.39460023132349231
0.87445543569388418,0,N,1.6042574513030632,0.66368891481058989,0.26306682088232819
0.16427704500270671,0,N,1.4138743680768704,0.2345170049581386,0.13153341044116409
0.41002597922233852,0.80000000000000004,N,0.71300331169025033,0.1925317684098074,0.9207338730881488
0.13952789674081389,0,Y,0.33037064442192221,0.097312237108055699,0.13153341044116409
0.93801504358921639,0.40000000000000002,Y,1.3644120964543796,0.66563215228572892,0.13153341044116409
0.77148074727923599,0,N,1.2370234157662654,0.48223428619103359,0.39460023132349231
0.039191835884530797,0,N,1.022375821932813,0.1122149904921818,0.52613364176465638
0.1444888886249317,0,N,0.48342371132925338,0.12025599886689289,0.13153341044116409
0.60789514052037819,0.40000000000000002,Y,0.86185675176170951,0.2790720675295722,0
0.34316111048421288,0,Y,0.62107814650505444,0.2496564911182719,0
0.1085216974650775,0.80000000000000004,Y,0.47082483082163767,0.095536368363023996,0
0.49645886032338138,0.40000000000000002,Y,0.67194029373950281,0.38412928516483669,0.52613364176465638
0,0,N,0.789529845143916,0.032069683479420998,0.52613364176465638
0.20154029529228679,0,Y,1.0060439397933114,0.092872639830472004,0.13153341044116409
0.27905579348162779,0,N,1.4936672779584366,0.1046907069669282,0.78920046264698474
0.68981351900687371,0,N,1.0004444373454819,0.57761544317823199,0.52613364176465638
0.1012042344360037,0,N,2.0648165276370136,0.099025901966764196,0
0.1240247971029457,0,Y,0.46802507959772321,0.092872639830472004,0.78920046264698474
0.062012398551472801,0,Y,0.26924274269978687,0.092962067240186103,0
1.3565832307120202,0,N,1.3144831996279027,0.60593491849432068,0
0.39687935072942632,0,N,1.8916985769582948,0.228368740016551,0.13153341044116409
0.1240247971029457,0.40000000000000002,Y,0.39336504696000058,0.16915272861669869,0.13153341044116409
0.66278851571814201,0.40000000000000002,Y,1.4110746168529562,0.19370111197068959,0.52613364176465638
0.3445408863519831,0.40000000000000002,N,0.68500579945110429,0.20039108773525771,0
0.3445408863519831,0,N,1.8044396638129567,0.31114950784853479,0.26306682088232819
0.080430080921260305,0.80000000000000004,N,0.34670252656142397,0.1068647850034225,0.39460023132349231
0.2821564134092015,0.40000000000000002,Y,1.0149098186690408,0.15030308643586579,0.26306682088232819
0.60046605517391172,0,N,1.3182162012597884,0.50597409360781809,0.13153341044116409
0.59367569753252536,0.40000000000000002,N,0.47409120724953813,0.25008535484292249,0.78920046264698474
0.16495298014691781,0.40000000000000002,N,1.3345480833992904,0.3138928185713829,0.65766705220582056
0.66278851571814201,0.40000000000000002,Y,0.44609369501039209,0.2082556280103994,0.26306682088232819
0.61750086105600122,0,Y,0.88798776318491257,0.28327321657625021,0.13153341044116409
1.3565832307120202,0,Y,1.0839703488589341,1.1122506113819473,0.13153341044116409
0.143825355960431,0,Y,0.68920542628697634,0.11979998620384689,0.13153341044116409
0.16654049754983549,0.40000000000000002,Y,1.1964270230195038,0.18971976490601961,0
0.26355269384375968,0,N,1.9397609729688288,0.20208640468505071,0
0.15503099637868209,0,Y,0.35930140706903968,0.17864538476060551,0
0.13022603695809301,0,N,1.6915163644484017,0.16826837432397121,0.13153341044116409
0.52988974438248038,0,Y,1.3700115989022086,0.421274999689223,0.26306682088232819
0.41002597922233852,0.40000000000000002,N,0.33970314850163758,0.44168182740801359,0.39460023132349231
0.062012398551472801,0,N,2.0120878795866224,0.22339638211545779,0
0.16495298014691781,0.40000000000000002,N,0.21044796699758031,0.3138928185713829,0.13153341044116409
0.1240247971029457,0.80000000000000004,N,0.90245314450847081,0.1239497461885624,0.9207338730881488
0.52988974438248038,0,N,1.5748600634519598,0.53933245664106766,0.52613364176465638
0.3117983399168055,0,Y,1.2356235401543081,0.2057943231558825,0.13153341044116409
0.28835765326434881,0,N,2.0452182690696121,0.21913437171237729,0
0.062012398551472801,0,N,1.8940317029782237,0.18610388431974759,0
0.54103337240218008,0,N,1.0951693537545926,0.45831920403460941,0
0.310303841111715,0,N,1.2734201816771549,0.1638447382354441,0.39460023132349231
0.27905579348162779,0.40000000000000002,Y,0.83899211676640695,0.14881138652403739,0
0.43408678986031002,0,Y,1.3634788460464078,0.74549135125540111,0
0.093018597827209296,0.80000000000000004,N,0.7717980873924567,0.1189773882874692,0.26306682088232819
0.049609918841178199,0.40000000000000002,N,0.83059286309466307,0.096601889610042999,0.13153341044116409
0.50775751933945978,0,N,2.0512843967214267,0.43163768980670381,0.13153341044116409
0.46847266485710171,0,Y,1.1772953896560872,0.48023727293407342,0
0.50775751933945978,0,N,0.47502445765750961,0.3499086449975547,0
0.086569308377856105,0.80000000000000004,N,0.81659410697509027,0.080448942529813494,0.26306682088232819
1.0342427830414644,0,Y,1.6868501124085435,0.42671508009767001,0.26306682088232819
0.85670128598859752,0,Y,1.5925918212034189,0.85378876485414346,0.26306682088232819
0.70818779269767518,0.40000000000000002,N,1.0181761950969412,1.1850555614685832,0
0.1646987293128567,0,N,1.4124744924649133,0.1173327891346783,0.13153341044116409
0.15503099637868209,0.40000000000000002,N,0.62714427415686924,0.1115188887283271,0.39460023132349231
1.2976466471287005,0.40000000000000002,Y,1.2412230426021371,0.49134238209767112,1.0522672835293128
0.70718629246106879,0.40000000000000002,N,0.91551865022007239,0.50698770369790547,0
0.076746544447302806,0,N,0.75873258168085522,0.1033205060129182,0.26306682088232819
0.17671053091227701,0,N,0.76806508576057064,0.1424013282479239,0.26306682088232819
0.15503099637868209,0,N,1.7666430222901095,0.29798137770687833,0
0.33176013101052459,0,Y,0.59821351150975188,0.51295286247531602,0.39460023132349231
0.59367569753252536,0.80000000000000004,N,0.90431964532441445,0.60070695781333572,0.26306682088232819
0.40308059058457357,0,N,0.52495335448398661,0.34770473296282378,0
0.27905579348162779,0,Y,1.2654875532093968,0.2482580224509327,0
0.2821564134092015,0,N,1.9752244884717469,0.30096477753053508,0.65766705220582056
0.67506697063133358,0,Y,0.33270377044185101,0.37707458877182659,0.13153341044116409
0.2069074683869167,0.40000000000000002,N,0.85112437207003711,0.19040743856537259,0
0.18913781558199219,0,N,1.621989209054522,0.1509423544330798,0
0.1116223173926511,0,N,0.54781798947928928,0.1221738774435307,0.13153341044116409
0.25372372867335119,0,Y,1.0573727122317451,0.080219519083374297,0.52613364176465638
0.58911778623899214,0,N,0.98597905602192359,0.4258413914593121,0.52613364176465638
0.018603719565441799,0,N,2.1040130447718184,0.0791987488337101,0.13153341044116409
0.4370261775516498,0,Y,0.18245045475843441,0.24982930455305721,0
0.32356829316187502,0.40000000000000002,Y,1.3662785972703226,0.23656481059709661,0.13153341044116409
0.20183175356547869,0,N,1.1539641294567988,0.111659108520039,0.9207338730881488
0.41002597922233852,0,N,0.1311216823200001,0.59232129217399676,0.26306682088232819
0.52710538768751936,0.40000000000000002,N,0.76666521014861333,0.2061844772678213,0.13153341044116409
0.15472093438592471,0,N,2.106812795995733,0.12374254907080939,0.39460023132349231
0.18541707166890381,0,N,0.87538888267729664,0.14838520785922801,0
0.047377472493325197,0,Y,1.7475113889266931,0.093916829768751903,0.26306682088232819
0.4267135156725399,0,N,1.7260466295433481,0.36665424445275369,0.26306682088232819
0.6356270851525968,0,N,1.2636210523934539,0.64107235742741231,0.39460023132349231
0.41002597922233852,0.40000000000000002,N,0.30610613381466228,0.23539628747116589,0
0,0,N,0.0116656300996441,0.0369338931369066,0.13153341044116409
0.60462088587686036,0,N,0.444227194194449,0.50930550702090449,0.26306682088232819
0.61826361355818449,0,N,1.6518532221096112,0.62436531841493426,0.39460023132349231
0.90538101885150379,0,N,1.5267976674414261,0.38799778513117689,0.78920046264698474
0.44098566919916138,0,N,1.8109724166687573,0.17431371197164261,0.13153341044116409
0.074290853464664394,0,N,1.1021687318143789,0.1126570557610522,0.13153341044116409
0.30386075290221698,0,N,0.31357213707843462,0.21161978423655051,0.13153341044116409
0.43408678986031002,0,N,1.9588926063322449,0.48606526990459142,0.39460023132349231
0.3117983399168055,1.2,Y,0.63507690262462735,0.41194725097056878,0.13153341044116409
0.2325464945680232,0,N,0.95658166817082002,0.2109655246552225,0
0.27905579348162779,0,N,0.3551017802331678,0.28650677447512057,0.39460023132349231
0.19391897151031079,0,N,0.79279622157181628,0.21606318534890931,0.13153341044116409
0.8300979670100157,0,N,1.2860190621847709,0.4139162948541823,0.13153341044116409
0.46819360906362001,0.40000000000000002,N,1.167962885576372,0.80018698982744418,0
0.27905579348162779,0,Y,1.1987601490394324,0.2127413934002543,0
1.0932134734439871,0,Y,1.4082748656290414,0.14988004034087121,0.39460023132349231
0.33504988875368019,0,N,1.4213403713406429,0.25122508816055511,0
0.3117983399168055,0.40000000000000002,Y,1.2640876775974397,0.2057943231558825,0
0.48933983696967231,0,N,1.8086392906488284,0.18371276394608221,0
0.054930582636894598,0,N,0.1007910440609254,0.1374545530003185,0
0.94547203451503081,0,N,1.8422363053358035,0.67075718567279774,0.26306682088232819
0.69808597297364028,0.40000000000000002,N,0.42836193725893301,0.70116996347515537,0.52613364176465638
0.56377952019086031,0.40000000000000002,Y,0.93185053235957438,0.4765577713465618,0
0.1085216974650775,0,N,2.0232868844822813,0.1338943874057533,0.26306682088232819
0.71466808834630402,0,N,1.2542885483137387,0.39824352597557028,0.26306682088232819
0.1568076515971818,0,Y,0.38543241849224252,0.15023595993983349,0.13153341044116409
0.43408678986031002,0,N,1.1250333668096817,0.22339638211545779,0
0.2302985451205323,0,Y,0.3084392598345912,0.25106741547987482,0.13153341044116409
0.18541707166890381,0.80000000000000004,Y,0.68500579945110429,0.34671021663160778,0
0.50775751933945978,0,N,1.8660341907390776,0.64763583703945748,0.26306682088232819
0.31936075192015762,0,Y,0.89732026726462766,0.1682019936778949,0
1.1315650413281455,0,Y,0.42789531205494719,0.50810491234686939,0.78920046264698474
0.1496886282434727,0,N,1.7549773921904652,0.1083061400432267,0.13153341044116409
0.093018597827209296,0,Y,0.026597636627188601,0.1189773882874692,0
0.74414878261767436,0,N,0.78999647034790155,0.66557882401388091,0.13153341044116409
0.1396488209179893,0,N,1.9028975818539533,0.2048955739590059,0.13153341044116409
0.27905579348162779,0,Y,1.2332904141343792,0.16538581341435399,0.52613364176465638
0.50540104819450371,0.40000000000000002,N,1.0513065845799303,0.36830436289521828,0
0.0146225235784373,0.40000000000000002,N,0.24171185566462669,0.072814273211084496,0.26306682088232819
0.33922332317619441,0,N,0.99531156010163835,0.25409340333601432,0
0.70046414845808924,0.40000000000000002,N,0.44936007143829249,0.39065077342436377,0
0.71190233537090841,0.40000000000000002,N,0.98271267959402298,0.2974841195412703,0.78920046264698474
0.61903876854007789,0.40000000000000002,N,0.15398631731530271,0.52086618133757467,0.65766705220582056
0.051625321794101099,0,N,0.1222558034442707,0.032769589078050901,0.52613364176465638
0.37053648382476068,0,Y,0.30703938422263388,0.19282250072262269,0.26306682088232819
0.27905579348162779,0,N,0.34950227778533849,0.46579761778757428,0.13153341044116409
0.43408678986031002,0,Y,0.30330638259074783,0.37256637329829878,0.26306682088232819
1.1315650413281455,0,Y,1.2323571637264077,0.55895129388143494,0.65766705220582056
0.0146225235784373,0,Y,1.917362963177512,0.031001178832578299,0
0.49627902436758209,0,N,0.7004044311826344,0.31673577484834098,0.13153341044116409
0.3445408863519831,0.40000000000000002,N,1.0895698513067631,0.54714046148955109,0.13153341044116409
0.3445408863519831,0,N,0.86745625420953854,0.1251099157949869,0.13153341044116409
0.43408678986031002,0.80000000000000004,N,0.54688473907131752,0.1994226015675031,0.39460023132349231
0.13425684286393871,0,Y,0.73633457188953866,0.13215409570361869,0
1.3203245812789739,0,N,1.6089237033429209,0.72199871851400665,0.78920046264698474
0.093018597827209296,0,N,1.0835037236549483,0.059309391814332799,0.26306682088232819
0.15503099637868209,0.40000000000000002,Y,0.4759577080654811,0.14881138652403739,0
0.1155197966416112,0,N,2.0382188910098256,0.1003460563887323,0
0.3539574690720243,0,Y,1.4017421127732406,0.26421995735745268,0
0.32629683869813991,0,N,1.4950671535703941,0.14288933787407859,0.65766705220582056
0.40308059058457357,0,Y,0.35603503064113928,0.14881138652403739,1.0522672835293128
0.4511805075210234,0,N,1.3560128427826357,0.2316201237293678,0.26306682088232819
0.1444888886249317,0,N,1.7960404101412131,0.2810754205111578,0.26306682088232819
0.30379253926381039,0,N,1.7867079060614974,0.2061424113303077,0.52613364176465638
0.1240247971029457,0,N,0.051328772438434297,0.10619135707822749,0.13153341044116409
0.1444888886249317,0,N,2.1884722066932421,0.1792801776580841,0.13153341044116409
0.42155408411305728,0,Y,1.9196960891974408,0.36251731308727991,0.13153341044116409
0.71190233537090841,0.40000000000000002,Y,0.46475870316982282,0.35705269421528329,0.52613364176465638
0.54459288407903461,0,Y,1.1432317497651263,0.46117334806090621,0.26306682088232819
0.20154029529228679,0,N,0.51375434958832811,0.18610388431974759,0.13153341044116409
0.65423080471803863,0,N,1.5645943089642731,0.29933748209672151,0
0.34416261072081922,0,N,1.9336948453170135,0.56368110137686489,0.26306682088232819
0.71190233537090841,0.40000000000000002,N,0.95518179255886282,0.44640551893380509,0.39460023132349231
0.3445408863519831,0.40000000000000002,N,0.43162831368683341,0.30076585934729277,0
0.48679732862906189,0,N,0.38916542012412869,0.1241983379788686,0.13153341044116409
0.26943146922643929,0,N,0.41949605838320347,0.144181149997722,0
0.48933983696967231,0.40000000000000002,N,0.1763843271066195,0.31256274434500098,0.26306682088232819
0.48933983696967231,0,N,0.96778067306647841,0.6254840933488055,0
0.068151626008068594,0,N,0.51515422520028542,0.065897708229909702,0
0.52617520170924725,0,N,1.5291307934613547,0.6378758682713509,0
0.50775751933945978,0,N,1.3177495760558029,0.36992390148949039,0
0.92445603264593679,0,N,0.37470003880057001,0.24157311846606491,0
0.32816961313439441,0.40000000000000002,N,0.52495335448398661,0.17963982650682589,0
0.1403960703205345,0,N,2.015820881218509,0.21664450080454889,0.13153341044116409
0.67506697063133358,0.40000000000000002,N,0.3415696493175806,0.67902120318432713,0
0.1240247971029457,0,N,1.1450982505810694,0.11618045095279091,0
0.2480495942058914,0.40000000000000002,N,0.46475870316982282,0.37256637329829878,0.39460023132349231
0.15472093438592471,0.80000000000000004,N,0.91458539981210119,0.1310426300993153,0.65766705220582056
0.2027402352042578,0,N,0.62714427415686924,0.28077834847371719,0.39460023132349231
1.0342427830414644,0,N,1.96495873398406,0.73176771206657976,0.13153341044116409
0.27905579348162779,0,N,0.62061152130106845,0.2482580224509327,0.52613364176465638
0.2480495942058914,0,Y,1.5692605610041308,0.1914314159698472,0.26306682088232819
0.1093898710447981,0,N,1.0125766926491122,0.041856502845940398,0.26306682088232819
0.20588116319088989,0,N,1.3242823289116037,0.2275731418685773,0.65766705220582056
0.1240247971029457,0,N,1.9630922331681171,0.14881138652403739,0.13153341044116409
0.1772221332003267,0,N,1.2533552979057672,0.124864009064522,0.52613364176465638
0.26380694467782068,0,N,0.7941960971837736,0.17693365911178241,0.26306682088232819
0.068151626008068594,0,N,1.7190472514835613,0.095050521701741497,0.13153341044116409
0.080430080921260305,0.40000000000000002,N,0.62947740017679832,0.088994220059718104,0.39460023132349231
0.42904208123814769,0,N,1.6686517294530987,0.2763013841133421,0
0.093018597827209296,0,N,1.3256822045235608,0.2482580224509327,0.26306682088232819
0.43408678986031002,0,N,0.21138121740555199,0.22339638211545779,0.26306682088232819
0.27905579348162779,0,Y,0.8399253671743786,0.4968747241456648,0.65766705220582056
0.37056128878418121,0.40000000000000002,N,0.65887478802790134,0.32162981850406319,0.13153341044116409
0.056741344674597599,0.40000000000000002,Y,0.70133768159060617,0.1051791641030564,0.26306682088232819
0.58911778623899214,0.40000000000000002,Y,0.30004000616284748,0.29798137770687833,0.26306682088232819
0.4185836902224418,0,N,0.096591417225053502,0.29193395167933028,0.13153341044116409
0.30695827220986299,0,Y,1.115700862729966,0.1474539396042735,0.78920046264698474
0.26710910490068662,0,Y,1.0167763194849837,0.095256376289573799,0.39460023132349231
0.3224644724676588,0,N,0.43862769174661981,0.1211083561965116,0.13153341044116409
0.15503099637868209,0,Y,0.91925165185195901,0.17864538476060551,0.13153341044116409
0.16495298014691781,0.80000000000000004,Y,0.58281487977822166,0.092068315238014106,0
0.0020464091521986,0.40000000000000002,N,0.85019112166206545,0.071921043303881702,0.13153341044116409
0.046509298913604599,0,Y,1.6023909504871201,0.1239497461885624,0.39460023132349231
0.27905579348162779,0,Y,0.93838328521537517,0.16538581341435399,0.13153341044116409
0.52617520170924725,0.40000000000000002,N,1.2244245352586498,0.66978758073010924,0.13153341044116409
0.1118951719462776,0,N,0.96964717388242161,0.065746673613837098,0.78920046264698474
0.4862082108428229,0,N,0.33083726962590798,0.18814930323884671,0.39460023132349231
0.55811158696325569,0,N,0.38729891930818572,0.2358272395756931,0.26306682088232819
0.48902977497691491,0,N,1.5589948065164436,0.44961968473382169,0.13153341044116409
0.095626219186298697,0,Y,1.4806017722468348,0.1011789470345017,0.26306682088232819
0.15503099637868209,0.40000000000000002,N,0.2095147165896088,0.1115188887283271,0.39460023132349231
0.43408678986031002,0,N,1.7652431466781522,0.50817546975269889,0.13153341044116409
0.35656509043111378,0,N,0.2552439865802138,0.1861009009199239,0.13153341044116409
0.73036652703960947,0,N,1.4974002795903223,0.61013203995123666,0.39460023132349231
0.34106819203310068,0.80000000000000004,N,1.1124344863020657,0.25536134826106849,0
0.31006199275736429,0,Y,0.36676741033281191,0.32781537594344651,0
0.4511805075210234,0.40000000000000002,Y,0.2585103630081142,0.46359885211753932,0
0.51853217358777814,0,N,1.663985477413241,0.52840426308701272,0.26306682088232819
0.1052970527404009,0,N,0.86185675176170951,0.25185339216341718,0.13153341044116409
0.68270999875280247,0,N,1.0447738317241295,0.43985539003597091,0.13153341044116409
0.41996036547028448,0,Y,2.0004222494869781,0.49272958843067599,0
0.27905579348162779,0,Y,0.39709804859188669,0.16178268686232811,0.78920046264698474
0.15503099637868209,0,Y,1.4082748656290414,0.038555296356068497,0.13153341044116409
0.1444888886249317,0,N,0.16938494904683291,0.1685018253601723,0
0.15472093438592471,0,N,0.42416231042306118,0.22302345713750071,0
0.19391897151031079,0.40000000000000002,N,0.34296952492953792,0.27016863285083759,0
0.1240247971029457,0.40000000000000002,Y,0.70087105638662039,0.14307408490815851,0.26306682088232819
0.36091215956957201,0,Y,0.33130389482989381,0.4710185674789738,0.13153341044116409
0.87307255920618643,0,N,1.2136921555669768,0.86954111592305161,0
0.36270121726778198,0,N,1.6411208424179389,0.4616208580344548,0.13153341044116409
0.95902174359852776,0,Y,0.079792909881565996,0.52886340831987355,0.13153341044116409
0.077515498189341003,0,Y,0.1833837051664059,0.0369338931369066,0.39460023132349231
0.48933983696967231,0,N,1.2911519394286142,0.17845362673694001,0.65766705220582056
0.43684014035599539,0,N,1.1511643782328844,0.29579879698088651,0.65766705220582056
0.22009440493888749,0.40000000000000002,Y,0.28744112565523178,0.22335215321307211,0
0.15472093438592471,0.40000000000000002,N,0.52681985529992958,0.17834704477823979,0.13153341044116409
0.74414878261767436,0,N,1.9462937258246296,0.41400251510908598,0.9207338730881488
0.24323743207829709,0,N,0.36863391114875488,0.3294860798446943,0.26306682088232819
0.074290853464664394,0,N,1.6737846066969422,0.0970608856729126,0
0.1597873473475801,0.40000000000000002,N,1.2211581588307494,0.130770320280411,0.26306682088232819
0.074290853464664394,0,N,1.4628700144953759,0.100957653352582,0.13153341044116409
0.73645924519729167,0,N,1.512798911321853,0.33530102444098381,0.13153341044116409
0.015686036213595,0.40000000000000002,N,0.85532399890590882,0.037080601823234999,0
0.1240247971029457,0.40000000000000002,N,0.48342371132925338,0.074226390932616904,0.26306682088232819
0.89917977899635648,0,N,1.6313217131342377,0.20305504002279651,0.26306682088232819
0.15217222480545919,0,Y,0.19504933526605009,0.10685143428921159,0.26306682088232819
0.58911778623899214,0.40000000000000002,N,0.49042308938903978,0.4968747241456648,0.26306682088232819
0.56332062844157949,0,Y,1.3746778509420663,0.4081114192322976,0
0.15503099637868209,0,Y,1.1791618904720309,0.094856302373221402,0
0.16086016184252061,0,N,1.281352810144913,0.18425417642908029,0
0.64197405414434006,0,Y,1.6803173595527428,0.4621685356570826,0.52613364176465638
0.1085216974650775,0,N,0.91645190062804438,0.22339638211545779,0.13153341044116409
0.41002597922233852,0.40000000000000002,Y,0.2197804710772957,0.3785331729456124,0.26306682088232819
0.71190233537090841,1.2,N,0.98084617877808,1.0508511242361562,0.26306682088232819
0.15503099637868209,0,N,1.9308950940930991,0.16538581341435399,0.26306682088232819
0.53385233664991949,0,N,1.950026727456516,0.30158800975369709,0.13153341044116409
0.093018597827209296,0.40000000000000002,Y,0.43162831368683341,0.1189773882874692,0
1.053888310902571,0,Y,1.2748200572891124,0.74526975923349892,0.13153341044116409
0.080430080921260305,0,N,1.3088836971800732,0.088994220059718104,0.13153341044116409
0.15503099637868209,0.40000000000000002,Y,0.41716293236327479,0.074226390932616904,0.26306682088232819
0.43408678986031002,0,N,1.7801751532056969,0.27933512880902323,0
0.3193638525400852,0,N,0.3019065069787904,0.42104662043272212,0.13153341044116409
0.43408678986031002,0.80000000000000004,N,0.98177942918605121,0.48606526990459142,0.26306682088232819
0.058911778623899201,0,N,1.6499867212936681,0.14383902862294409,0
1.0542107753750387,0.40000000000000002,N,0.31823838911829228,0.65226010676612545,0.39460023132349231
0.27905579348162779,0,N,0.25057773454035631,0.20287029298871651,0.13153341044116409
0.89917977899635648,0,N,1.5071994088740237,0.4968747241456648,0
0.27905579348162779,0,N,1.6798507343487572,0.2482580224509327,0.78920046264698474
1.1315650413281455,0,Y,1.5603946821284009,1.1182611924216732,0
0.1986722218592811,0,N,0.21044796699758031,0.22063673727857519,0.26306682088232819
0.099002794287426393,0,N,1.3714114745141659,0.062188372644161598,0.78920046264698474
0.13952789674081389,0,Y,1.805372914220928,0.090800817822933505,0.39460023132349231
0.61160968319361142,0,Y,1.685450236796586,0.85842131351532225,0
0.32816961313439441,0,Y,0.096124792021067704,0.191639731862534,0
0.42689955286819431,0,N,1.8347703020720316,0.28950613548783399,0.13153341044116409
0.37127133074759561,0,N,1.040107579684272,0.32219912577541249,0.65766705220582056
0.58142824881860955,0,N,0.98924543244982377,0.36794210357163071,0.39460023132349231
0.1795879062050654,0,N,0.89778689246861354,0.33736225537914832,0
1.3363671887842401,0,Y,1.2776198085130273,0.50567187520568158,0
0.16495298014691781,0,N,1.6490534708856963,0.1174856883756408,0.13153341044116409
0.68734542554452505,0,Y,1.5813928163077606,0.46666444460633788,0.13153341044116409
0.1240247971029457,0.40000000000000002,N,0.97478005112626476,0.10619135707822749,0.52613364176465638
0.27905579348162779,1.2,N,0.89732026726462766,0.18610388431974759,0.13153341044116409
0.96286961292864659,0.80000000000000004,N,0.87678875828925407,0.4777923767785866,0
0.20588116319088989,0,N,0.58981425783800812,0.37952761469183283,0.13153341044116409
0.55333663227479224,0.80000000000000004,N,0.77506446382035699,0.35104860207017402,0.13153341044116409
0.27905579348162779,0,Y,0.95938141939473476,0.18610388431974759,0.26306682088232819
0.27905579348162779,0,Y,0.54455161305138888,0.2482580224509327,1.3153341044116411
0.44958988949817819,0,N,1.923429090829327,0.23085488167459989,0
0.21309940638228131,0,N,0.58561463100213595,0.14643958366423021,0.13153341044116409
0.3297664323970948,0.80000000000000004,N,0.82172698421893364,0.14428034804185849,0.26306682088232819
0.48933983696967231,0.40000000000000002,Y,1.034041452032457,0.17845362673694001,0.26306682088232819
0.36592276137253099,0,N,0.34296952492953792,0.1189923052865874,0
1.0542107753750387,0,N,1.3858768558377246,0.50165577153306595,0.39460023132349231
0.36408719437540749,0,N,0.051795397642419902,0.25650406497852468,0
0.25115021413346511,0.40000000000000002,N,0.65187540996811488,0.22588252377350659,0.26306682088232819
0.3445408863519831,0.40000000000000002,N,0.5426851122354458,0.12869476902309299,0.39460023132349231
0.082119918781787898,0,N,1.1600302571086138,0.090349205674627495,0.26306682088232819
0.72554506305223254,0,Y,0.52541997968797227,0.30295373560797151,0.13153341044116409
0.33724512766240239,0,N,1.3956759851214255,0.25273386803637388,0
0.2821564134092015,0.40000000000000002,Y,0.33130389482989381,0.1670432411863865,0.13153341044116409
0.1531954293815585,0,Y,1.4162074940967997,0.17006236722293169,0.65766705220582056
0.46199236920847281,0,N,1.2785530589209984,0.21525983036139421,0.26306682088232819
0.52617520170924725,0.80000000000000004,N,0.43722781613466261,1.339933766119022,0.26306682088232819
0.15503099637868209,0,N,0.71393656209822165,0.17864538476060551,0
0.37958719339334812,0,N,1.2561550491296818,0.39471215018930339,0.13153341044116409
0.1444888886249317,0,Y,1.335481333807262,0.076396143039366898,0
0.71190233537090841,0,Y,0.11758955140441291,0.51022894385132189,0.52613364176465638
0.1240247971029457,0,N,2.0872145374283302,0.2482580224509327,0.13153341044116409
1.3565832307120202,0.40000000000000002,N,0.30097325657081891,0.51315334694346582,0.26306682088232819
0.34044806804758598,0,N,0.51748735122021416,0.25493516959625911,0.39460023132349231
0.095830860101518506,0,N,2.0204871332583663,0.1521938160741082,0.13153341044116409
0.086817357972061998,0.40000000000000002,N,1.0041774389773683,0.14135288696489531,0
0.51389674679605557,0,N,1.6495200960896823,0.36374050701497918,0.52613364176465638
0.1085216974650775,0.40000000000000002,N,1.1917607709796461,0.16745763542189249,0
0.13425684286393871,0,N,2.1348103082348788,0.13215409570361869,0
1.0131554669140359,0.40000000000000002,N,0.62201139691302587,0.38605939568075143,0.26306682088232819
0.38204598499591391,0.40000000000000002,N,0.99717806091758165,0.33083852956975351,0.13153341044116409
0.85670128598859752,0,N,1.5902586951834901,1.1859572194802881,0.39460023132349231
0.3117983399168055,0.40000000000000002,Y,0.65794153761992991,0.18288845057480579,0.13153341044116409
0.3117983399168055,0.40000000000000002,Y,1.0961026041625641,0.16456373759294529,0
0.22324463478530229,0,N,1.4395387542960878,0.20350702509608051,0
0.65971270074998878,0,Y,1.3037508199362298,0.27656056697302239,0
0.48319440827322141,0,N,0.99951118693751062,0.30886705781344609,0
0.045740345171566298,0.40000000000000002,Y,0.9472491640911046,0.073486507776350005,0.52613364176465638
0.91666727538787163,0.40000000000000002,N,0.60334638875359525,0.32530081740207728,0.65766705220582056
0.29765951304706972,0,N,0.3677006607407835,0.31588177664881928,0
0.1118331595477261,0,N,1.8137721678926719,0.14903193435600121,0.13153341044116409
0.046211639400557503,0.80000000000000004,N,0.57114924967857761,0.061556861486488999,0.13153341044116409
0.72176230674059261,0,Y,2.0069550023427789,0.36179629993489759,0
0.4928094306686272,0,N,1.4493378835797888,0.15714536476143151,0.26306682088232819
0.30695827220986299,0,N,1.5795263154918175,0.27063105982350438,0
0.54900816685589948,0,N,1.5697271862081164,0.43564663331974263,0
0.64157717479361065,0,N,1.2505555466818523,0.40411396180857989,0.52613364176465638
0.4000047756164205,0,N,1.1604968823125996,0.34523843091360229,0.13153341044116409
0.89917977899635648,0,N,1.4022087379772263,0.55902886227685,0.13153341044116409
0.46171331341499111,0,N,1.5515288032526715,0.52641038239986726,0.13153341044116409
0.46199236920847281,0,N,2.046618144681569,0.37023559218606689,0.26306682088232819
0.89917977899635648,0,Y,0.78439696790007252,0.4968747241456648,0
0.1563797660471766,0,N,1.4120078672609275,0.0998090444204741,0.78920046264698474
1.0249316213989608,0.40000000000000002,Y,1.0438405813161582,0.46146758586851438,0.52613364176465638
0.062012398551472801,0,N,0.041529643154733099,0.1153667286508885,0.13153341044116409
0.46505578169691558,0.40000000000000002,N,0.50115546908071251,0.1832214725801215,0.52613364176465638
0.50775751933945978,0,N,1.5356635463171553,0.32363861619032702,0.52613364176465638
0.44077482704408633,0,N,1.4227402469526,0.43612710986134251,0
0.40120471552839149,0,Y,0.302839757386762,0.296692101473085,0
0.32816961313439441,0.40000000000000002,Y,0.29864013055089011,0.2156395425739501,0.13153341044116409
0.17178984708721759,0,N,1.6905831140404295,0.54166711617307028,0
0.28137505718745293,0.40000000000000002,N,0.3210381403422069,0.16662556521107461,0.39460023132349231
0.2055897049176979,0,N,1.9523598534764444,0.1319967959479163,0.13153341044116409
0.54459288407903461,0,Y,0.2729757443316731,0.27656056697302239,0.26306682088232819
0.87668788204173731,0,N,0.79699584840768811,0.34080480043566591,0.52613364176465638
0.160965582920058,0,Y,1.0289085747886135,0.1843556120230847,0.13153341044116409
0.3036127033080111,0.40000000000000002,Y,0.294907128919004,0.1234754602015965,0.39460023132349231
1.0501117558307862,0,N,1.4404720047040591,0.51976433719770254,0
0.20245807879084851,0.40000000000000002,Y,0.13765443517580089,0.28043898674377621,0
0.093018597827209296,0.40000000000000002,Y,0.57534887651444921,0.078151948420584497,0
0.18603719565441859,0.80000000000000004,N,1.0177095698929557,0.2896941642617199,0.13153341044116409
0.26704399188220751,0,Y,0.40549730226363062,0.20448587857822231,0.65766705220582056
0.4928094306686272,0.40000000000000002,Y,0.68173942302320389,0.2796483857905071,0.13153341044116409
0.58911778623899214,0,N,1.1670296351684002,0.2482580224509327,0
0.15472093438592471,0,N,1.6938494904683301,0.22302345713750071,0.39460023132349231
0.32816961313439441,0,N,0.30983913544654851,0.15964000910897769,0.39460023132349231
0.1304492815928783,0,N,0.11059017334462649,0.11060678881723961,0.52613364176465638
0.21704339493015501,0,N,1.3480802143148776,0.35062958356494128,0.39460023132349231
0.53731882972894685,0,Y,1.2864856873887565,0.45534080140565719,0.26306682088232819
0.53385233664991949,0,N,1.1110346106901088,0.71477807050580555,0
0.27751788599755128,0,N,1.1282997432375821,0.26469513836436559,0.39460023132349231
0.4960991884117828,0,Y,0.90105326889651405,0.16870074354341469,0.52613364176465638
0.27905579348162779,0,N,0.98411255520597996,0.16538581341435399,0
0.2821564134092015,0,N,0.43349481450277638,0.19788048219865489,0
0.13425684286393871,0,N,2.2113368416885444,0.26466672148104531,0
0.41002597922233852,0,Y,0.27904187198348801,0.48186732801272392,0
0.080430080921260305,0.40000000000000002,N,0.3201048899342353,0.133670632418979,0.39460023132349231
0.093018597827209296,0,Y,0.58468138059416475,0.19853474177998279,0
0.16495298014691781,0.80000000000000004,N,0.46989158041366619,0.1881922641963073,0.26306682088232819
0.2204168694113551,0,N,1.7069149961799317,0.28763890012320281,0
0.43408678986031002,0,N,0.43069506327886192,0.3192913551372854,0
0.18603719565441859,0.40000000000000002,N,1.0891032261027771,0.2084793829971737,0.52613364176465638
0.54459288407903461,0,Y,1.6084570781389349,0.25138611716603698,0
0.168034996354926,0.40000000000000002,N,0.34016977370562329,0.136438779945359,0.13153341044116409
0.1463430593416207,0.40000000000000002,N,0.605679514773524,0.084963646897957795,0.13153341044116409
0.53360428705571361,0,N,1.6989823677121734,0.27127398248550239,0.39460023132349231
0.56915599514527304,0,Y,1.0867701000828487,0.41212200361523948,0.13153341044116409
1.2092417717537207,0,Y,0.68173942302320389,0.33113023148751158,0.78920046264698474
0.1062148362389627,0.40000000000000002,Y,0.20718159056968011,0.1646830735858916,0.26306682088232819
0.1093898710447981,0.40000000000000002,Y,1.4082748656290414,0.13472973935637719,0.13153341044116409
1.0342427830414644,0.80000000000000004,N,0.50955472275245617,0.98519604099690539,0.13153341044116409
0.54846245774864655,0.40000000000000002,Y,0.78766334432797291,0.43523641584398981,0.65766705220582056
0.34106819203310068,0,N,2.0274865113181524,0.22339638211545779,0
0.1563797660471766,0,N,2.0302862625420675,0.32160886012030199,0
0.58911778623899214,0,N,0.81892723299501902,0.37256637329829878,0.39460023132349231
0.049609918841178199,0,N,1.7087814969958746,0.077209790756273697,1.4468675148528052
1.1573497966458479,0,N,1.3210159524837033,0.28549883284469818,0.65766705220582056
0.43408678986031002,0.40000000000000002,N,1.4124744924649133,0.41400251510908598,0.65766705220582056
0.50914039582715753,0.40000000000000002,N,0.55575061794704694,0.37087433808831177,0.26306682088232819
0.13952789674081389,0,Y,1.2911519394286142,0.20475013321760269,0.13153341044116409
0.21138786418226069,0.80000000000000004,N,0.51468759999629976,0.2328716599553918,0
0.85670128598859752,0.40000000000000002,N,1.1768287644521014,0.3046940273101062,0.39460023132349231
0.52617520170924725,0,Y,1.6369212155820667,0.89316964252641362,0.13153341044116409
0.61826361355818449,0,N,1.6527864725175829,0.28886545037570371,0.26306682088232819
0.52617520170924725,0,N,1.2202249084227776,0.66978758073010924,0.13153341044116409
0.17372463392202361,0,N,1.9122300859336685,0.1966323022974325,0
0.15503099637868209,0,N,0.15398631731530271,0.089143390050900995,0.39460023132349231
0.1387403392792102,0,N,1.1520976286408555,0.16297060208711259,0.26306682088232819
0.38527062972059051,0,N,0.1059239213047688,0.22216326838334491,0.13153341044116409
1.3218934949623262,0,Y,1.7591770190263376,0.43355899929313879,0
0.60046605517391172,0,N,1.1348324960933829,0.33719652751894419,0
0.85670128598859752,0,N,1.2622211767814966,0.60974665927901572,0.13153341044116409
0.1271254170305193,0,Y,0.31030576065053422,0.1898331340993186,0
0.077515498189341003,0,Y,1.8977647046101096,0.15319877430470699,0.39460023132349231
0.18913781558199219,0,Y,1.5202649145856251,0.075291912179635906,0.13153341044116409
0.58551176526322402,0.80000000000000004,N,1.0765043455951619,0.49398328762157218,0.13153341044116409
0.20934455564998961,0,N,0.98784555683786635,0.19236156544986771,0.13153341044116409
0.1550185938989718,0,N,1.1749622636361583,0.14880146671962369,0.13153341044116409
0.2956255063745814,0,Y,1.0522398349879021,0.22412947803712591,0
0.52402957271936623,0,Y,0.344836025745481,0.44468506684049769,0.39460023132349231
0.26943146922643929,1.2,Y,0.48575683734918218,0.144181149997722,0.26306682088232819
0.33589635799390788,0.40000000000000002,Y,0.84039199237836426,0.3526730632741551,0.52613364176465638
0.32816961313439441,0.80000000000000004,Y,0.53848548539957375,0.2156395425739501,0
0.57074971378804584,0,Y,0.75453295484498351,0.62001417894212196,0.39460023132349231
0.25633445065236821,0,N,1.8641676899231348,0.27611902379912112,0
0.57671530652869762,0,Y,0.58701450661409338,0.58438776077793286,0.13153341044116409
0.13952789674081389,0,N,1.859034812679291,0.1363805290638021,0.52613364176465638
0.2821564134092015,0.40000000000000002,Y,0.31030576065053422,0.10725687832524659,0.9207338730881488
0.039191835884530797,0,Y,0.44469381939843489,0.084071610350684403,0.13153341044116409
0.58911778623899214,0.80000000000000004,N,0.64347615629637112,0.2127413934002543,0
0.14213241747997579,0.40000000000000002,N,0.71580306291416462,0.1662344414941932,0
0.43684014035599539,0,N,0.38776554451217138,0.32118372564543102,0.26306682088232819
0.52617520170924725,0,N,1.1003022309984358,0.66978758073010924,0.52613364176465638
0.48933983696967231,0,N,1.2505555466818523,0.27779368070513533,0
0.1270323984326921,0,Y,1.2986179426923865,0.12636130285101979,0.39460023132349231
0.1240247971029457,0,N,1.7862412808575121,0.1239497461885624,0.52613364176465638
0.011962191680579101,0.40000000000000002,N,0.62947740017679832,0.10300128223178689,0
0.20415721851115889,0,N,0.094724916409110502,0.14106200548208869,0
0.1240247971029457,0,Y,1.4040752387931694,0.074226390932616904,0
0.58911778623899214,0.40000000000000002,Y,0.69760467995872011,0.29798137770687833,0.65766705220582056
0.58142824881860955,0.80000000000000004,N,0.50022221867274097,0.42055652242669089,0
0.1240247971029457,2,N,0.54408498784740278,0.18610388431974759,0.39460023132349231
0.3117983399168055,0,Y,1.3466803387029205,0.16456373759294529,0.65766705220582056
0.68270999875280247,0.40000000000000002,Y,0.4325615640948049,0.8580587558517524,0
0.81505065850150071,0,Y,0.65840816282391568,0.4519032535438442,0.13153341044116409
0.71190233537090841,0.80000000000000004,Y,1.622455834258508,0.35705269421528329,0.26306682088232819
0.27905579348162779,0,N,1.6681851042491129,0.2482580224509327,0.13153341044116409
0.055197235950665897,0.40000000000000002,N,0.38449916808427098,0.082585877238503302,0
0.13347548664219019,0,N,0.20578171495772271,0.071579294854081807,0.13153341044116409
0.31936075192015762,0,Y,0.96311442102662081,0.42104289118294252,0.13153341044116409
0.11991957631883821,0,N,0.49835571785679789,0.1293021146421939,0.13153341044116409
0.27905579348162779,0,N,0.24451160688854121,0.29798137770687833,0.26306682088232819
0.3199839765255999,0,Y,0.55528399274306139,0.33736225537914832,0.13153341044116409
0.33589635799390788,0.40000000000000002,Y,0.75126657841708311,0.17615722930767569,0.52613364176465638
0.1629499796737052,0.40000000000000002,N,0.31403876228242039,0.1329439508069318,0.26306682088232819
0.29455889311949601,0.40000000000000002,N,0.64067640507245638,0.39121262219615388,0.26306682088232819
0.34863370465638038,0,N,1.7036486197520311,0.36492886974973732,0
0.0155030996378682,0,Y,1.3718780997181514,0.1115188887283271,0
0.83419078531441282,0,Y,1.5365967967251271,0.25979385996407101,0.39460023132349231
0.26296357605752058,0.40000000000000002,N,0.27530887035160179,0.28249753262209942,0
0.1976366148034715,0.40000000000000002,Y,0.60801264079345307,0.1715155066920393,0
0.38953088150107668,0.40000000000000002,Y,1.2463559198459806,0.28866891891232033,0.13153341044116409
0.41002597922233852,0,Y,0.58094837896227858,0.2788248182691867,0
0.16495298014691781,0.40000000000000002,N,0.52308685366804353,0.3138928185713829,0.13153341044116409
0.74724940254524796,0.80000000000000004,Y,1.0163096942809982,0.20094070456777091,0.39460023132349231
0.43408678986031002,0.40000000000000002,Y,0.4516931974582214,0.1115188887283271,0
0.68270999875280247,0,Y,1.379344102981924,0.42885007559647448,0.39460023132349231
0.1177305386499712,0,N,2.14787581394648,0.054685122087664698,0
0.062012398551472801,0,Y,1.5533953040686146,0.022016894018622502,0.52613364176465638
0.2041448160314486,0,N,1.4222736217486145,0.1881922641963073,0.39460023132349231
0.093018597827209296,0,N,1.9313617192970849,0.099088031268091806,0.26306682088232819
0.37827563116398438,0,N,1.9882899941833485,0.39345017206389649,0
0.66278851571814201,0,N,1.5071994088740237,0.16653278147655889,0.52613364176465638
0.1444888886249317,0,N,2.0657497780449856,0.42179247038863621,0
0.15503099637868209,0,N,0.28977425167516058,0.089143390050900995,0.65766705220582056
0.168034996354926,0.40000000000000002,N,1.0195760707088986,0.2078113251916614,0
0.27905579348162779,0,Y,1.789974282489398,0.4968747241456648,0
0.3590207814137521,0,N,0.90338639491644279,0.46874372511343548,0
0.43408678986031002,0,Y,1.4544707608236322,0.18610388431974759,0.26306682088232819
0.093018597827209296,0,Y,0.94118303643929002,0.084881379647820401,0.26306682088232819
0.3445408863519831,0.40000000000000002,N,0.38869879492014281,0.18031608866185339,0.52613364176465638
0.96880419947002261,0,Y,0.52681985529992958,0.24014444287551129,0
0.17645628007821601,0,N,1.3448138378869772,0.099451036441635304,0.26306682088232819
0.1444888886249317,0,N,1.8319705508481168,0.2107169328649163,0
0.18541707166890381,0.40000000000000002,Y,1.2449560442340235,0.25994302995525381,0.26306682088232819
0.44077482704408633,0,N,0.64394278150035678,0.63012081876973747,0.13153341044116409
0.3445408863519831,0.80000000000000004,N,0.77039821178049939,0.90301486194448122,0
0.58296615630268611,0.40000000000000002,Y,1.0802373472270479,0.15510479386704579,0.26306682088232819
0.17313861675571221,0,N,1.3448138378869772,0.32701977779547281,0.39460023132349231
0.093018597827209296,0,N,0.24731135811245589,0.074226390932616904,0.13153341044116409
1.0072301822324428,0.40000000000000002,Y,1.0587725878437029,0.33263655005847592,0.65766705220582056
0.1361482210197586,0,N,0.394764922571958,0.133670632418979,0
0.26045207391618602,0,N,2.0452182690696121,0.28008097876493732,0.26306682088232819
0.52924481543754509,0.40000000000000002,Y,0.52775310570790135,0.24467346756280911,0
0.46017230531098702,0.40000000000000002,N,0.56554974723074813,0.29502221800678868,0.13153341044116409
0.2366889227912615,0.80000000000000004,N,0.84785799564213671,0.32160990431024028,0.39460023132349231
0.31626323261251149,0,Y,0.34063639890960912,0.278092020687501,0.52613364176465638
0.89917977899635648,0,Y,0.1236556790562278,0.55902886227685,0.26306682088232819
0.15503099637868209,0,N,1.034508077236443,0.22339638211545779,0
0.30100508194892162,0,N,1.4236734973605716,0.2658576201056535,0.26306682088232819
0.46862149461362518,0.40000000000000002,N,0.3196382647302497,0.14987235808632529,0.26306682088232819
0.19527394241866039,0.40000000000000002,N,0.88752113798092691,0.2173669310718474,0.26306682088232819
0.031006199275736401,0,Y,1.2430895434180804,0.029475393577764599,0
0.52617520170924725,0,N,1.6709848554730278,0.53575834365232677,0.39460023132349231
0.70401435827516112,0,Y,1.5818594415117462,0.58900211070018726,0.26306682088232819
0.22479184412916151,0,N,1.7736424003498958,0.1534710841236113,0
0.71190233537090841,0,Y,0.93558353399146044,0.44640551893380509,0
0.16325694104653499,0.80000000000000004,Y,0.79979559963160274,0.058053529658564397,0.26306682088232819
0.14262851666838749,0.40000000000000002,Y,0.49228959020498297,0.21947082462749021,0.39460023132349231
0.71190233537090841,0,Y,1.5925918212034189,0.44640551893380509,0.39460023132349231
0.59221840616656585,0,N,1.5636610585563011,0.5993047598962169,0
0.062012398551472801,0.40000000000000002,N,0.53801886019558809,0.074226390932616904,0.13153341044116409
0.061857367555094099,0.40000000000000002,Y,0.79792909881565977,0.031553107799954801,0
0.87307255920618643,0,Y,1.805372914220928,0.36209963711196802,0.13153341044116409
0.89917977899635648,0,Y,1.8072394150368711,0.74549135125540111,0
0.27285455362648059,0,N,0.79232959636783029,0.1458279867003805,0.26306682088232819
0.7241807902841001,0.80000000000000004,N,0.76479870933267036,0.37809811866632759,0.26306682088232819
0.89607915906878277,0,Y,1.0317083260125284,0.49521722178863659,0.39460023132349231
0.52617520170924725,0,Y,1.5785930650838458,0.24333093764216349,0.26306682088232819
0.32816961313439441,0,N,0.77646433943231441,0.28763890012320281,0.26306682088232819
0.15472093438592471,0,Y,0.95144879092697676,0.1485627947337311,0.52613364176465638
0.56377952019086031,0.80000000000000004,Y,0.70787043444640685,0.35732865869897162,0
0.060998495835156201,0,N,2.0531508975373698,0.22095745275961839,0
0.1444888886249317,0,N,1.7573105182103941,0.087589560837744898,0
0.88392162833276655,0.80000000000000004,N,0.24404498168455549,0.43981071362361168,0.39460023132349231
0.844742194927946,0,N,1.1576971310886852,0.35074153564332411,0.52613364176465638
0.32816961313439441,0,N,0.12458892946419931,0.34523843091360229,0.26306682088232819
0.7728977305861372,0.40000000000000002,Y,0.52728648050391536,0.84041537680461942,0.26306682088232819
0.16743347608897671,0,Y,0.27857524677950218,0.1286532997655441,0.26306682088232819
0.33176013101052459,0,Y,1.8874989501224231,0.61416925117760468,0.13153341044116409
0.3117983399168055,0,N,0.7605990824967982,0.1265047297975421,1.183800693970477
0.18541707166890381,0.40000000000000002,N,0.93884991041936083,0.25994302995525381,0.26306682088232819
0.34416261072081922,0,N,1.3144831996279027,0.30046259675521808,0
0.19432205210089529,0,N,1.6653853530251983,0.18031608866185339,0.65766705220582056
0.071221239736366501,0,N,0.35230202900925328,0.24554812580610971,0
0.40261549759543752,0,Y,0.99904456173352463,0.1892906774263822,0.26306682088232819
1.3253630886612813,0,Y,0.94118303643929002,0.81532341800275832,0
0.3160399879777262,0,N,1.4675362665352336,0.4634274557976702,0.39460023132349231
0.095350264012744601,0,Y,0.17218470027074759,0.060431150148027697,0
0.4140288795488361,0,N,1.8646343151271203,0.53490434545280496,0.39460023132349231
0.40399837408313538,0,N,0.76993158657651362,0.3484405885293288,0.39460023132349231
0.89994563211846712,0,N,2.003688625914879,0.4068035713346021,0
0.43408678986031002,0,Y,0.23377922719686861,0.2482580224509327,0.52613364176465638
0.2821564134092015,0,Y,0.29024087687914629,0.1670432411863865,0.65766705220582056
0.27905579348162779,0,N,1.6448538440498248,0.37256637329829878,0.52613364176465638
1.269083736355892,0.40000000000000002,Y,1.0415074552962296,0.69460782639303109,0.65766705220582056
0.16495298014691781,0.40000000000000002,Y,0.77459783861637144,0.052016620115394901,0.52613364176465638
0.1506808266202963,0,N,1.5995911992632057,0.21816424467471959,0
0.50775751933945978,0,N,1.8310373004401452,0.51803694869980532,0
0.82166428080701537,0,N,2.0438183934576548,0.45543858233487761,0.39460023132349231
0.55811158696325569,0,Y,1.8963648289981525,0.35392012440044368,0.13153341044116409
0.69808597297364028,0,N,1.648120220477725,0.38937947217450791,0.26306682088232819
0.48933983696967231,0.40000000000000002,Y,1.0144431934650551,0.27779368070513533,0
0.18541707166890381,0,N,0.87445563226932532,0.1207119369449432,0.9207338730881488
0.37056128878418121,0,Y,0.2015820881218508,0.27563146168294,0
0.52402957271936623,0,Y,0.11432317497651261,0.44468506684049769,0
0.85670128598859752,0,N,0.82639323625879146,1.0673256072323805,0.26306682088232819
0.4960991884117828,0,Y,1.2561550491296818,0.42228972855424429,0
0.37207439130883718,0,N,1.2468225450499659,0.2151091686702995,0
0.34044806804758598,0,Y,0.61687851966918239,0.27886897258657678,0.13153341044116409
0.2325464945680232,0,Y,0.89918676808057096,0.12643588784661119,0
0.15179704979422279,0.40000000000000002,N,0.90245314450847081,0.1217887951112922,0
0.31365251063349447,0.80000000000000004,N,0.394764922571958,0.27599871820123217,0.13153341044116409
0.33176013101052459,0.80000000000000004,Y,0.88565463716498349,0.58139444114986238,0
0.81168028464022823,0,N,1.6093903285469069,0.36819979473139908,0.39460023132349231
0.58911778623899214,0,N,1.3200827020757315,0.2660164115612676,0.39460023132349231
0.168034996354926,0,N,1.3345480833992904,0.15923836890771789,0
0.39730723627943149,0.40000000000000002,Y,0.4110968047114596,0.2940134559414147,0.13153341044116409
0.1610337965584647,0,N,1.8641676899231348,0.16462340558941849,0.52613364176465638
0.74474410164376847,0,N,1.9710248616358752,0.41432069470027899,0.26306682088232819
0.27905579348162779,0.40000000000000002,N,0.33457027125779398,0.57337215360904481,0
0.1323096535494224,0,N,0.71207006128227868,0.1305927334059078,0.39460023132349231
0.1240247971029457,1.2,Y,0.55901699437494734,0.2482580224509327,1.0522672835293128
0.062012398551472801,0,Y,0.49462271622491188,0.1115188887283271,0.26306682088232819
0.69747825146783582,0,N,1.4722025185750911,0.43773128394652278,0.26306682088232819
0.1813056496449412,0,N,1.8081726654448429,0.25499804474754267,0
0.074290853464664394,0,N,1.9836237421434904,0.072010172373613401,0
0.27905579348162779,0.80000000000000004,N,0.3084392598345912,0.43327505421492229,0
0.40928183043972088,0,N,1.8772331956347359,0.13202976251596771,0.78920046264698474
0.27905579348162779,0,N,1.0228424471367989,0.2482580224509327,0.26306682088232819
0.18541707166890381,0,N,0.097524667633025003,0.25994302995525381,0.26306682088232819
0.42947306740808039,0,N,1.3466803387029205,0.37512501157206241,0.26306682088232819
0.30695827220986299,0.40000000000000002,Y,1.06017246345566,0.2536942244396091,0
0.43408678986031002,0,Y,0.99764468612156765,0.29405582021891069,0
0.1175755076535925,0.80000000000000004,N,0.3336370208498225,0.23791561945225281,0.13153341044116409
1.1570273321733806,0,Y,0.2981735053469044,0.63470779599860971,0.13153341044116409
0.43408678986031002,0,Y,1.4236734973605716,0.22339638211545779,0.26306682088232819
0.1463430593416207,0,N,0.23657897842078329,0.17028589845471909,0.26306682088232819
0.092175229206909196,0,N,0.82032710860697633,0.19718221746992801,0.13153341044116409
0.47426772350173679,0.80000000000000004,Y,1.3896098574696107,0.34690697184997799,0
0.43408678986031002,0,N,1.2776198085130273,0.37256637329829878,0
0.37728343278716081,0,Y,0.13532130915587201,0.24517520082815261,0
0.093018597827209296,0,N,1.1343658708893971,0.14881138652403739,0.13153341044116409
0.16495298014691781,0,Y,1.5211981649935966,0.1043918448895933,0.26306682088232819
0.61367469606537539,0.80000000000000004,N,0.65654166200797259,0.30979564100855927,0
0.48933983696967231,0.80000000000000004,Y,1.0555062114158025,0.50031555374728376,0.26306682088232819
0.2480495942058914,0,N,1.6705182302690416,0.37256637329829878,0
0.062012398551472801,1.2,Y,0.36583415992484042,0.096681471800338994,0.52613364176465638
0.2433366519159795,0,N,1.4180739949127426,0.093916829768751903,0.52613364176465638
0.22479184412916151,0,N,1.8133055426886864,0.1227051463671284,0.65766705220582056
0.55380172526392835,0,N,0.63694340344057043,0.17548484557241911,0.39460023132349231
1.4056970503647868,0,N,1.670051605065056,0.86363398427221105,0.26306682088232819
0.43408678986031002,0,Y,0.42462893562704701,0.1594663752392409,0.26306682088232819
0.53731882972894685,0,N,1.3620789704344505,0.39024085428859329,0.26306682088232819
0.18603719565441859,0,N,0.055528399274306098,0.2084793829971737,0
0.068151626008068594,0,N,0.61174564242533902,0.074179775310372204,0
0.1403960703205345,0,Y,0.54175186182747415,0.051179627294867899,0.26306682088232819
0.71190233537090841,0.40000000000000002,N,0.93371703317551735,0.71446399308937014,0.52613364176465638
0.88367667935848815,0,Y,1.676117732716871,0.43969286933057727,0
0.39785294538668442,0,N,0.59868013671373754,0.1715771884833934,0.26306682088232819
0.74414878261767436,0.80000000000000004,Y,0.65047553435615757,0.56467927237286486,0
1.0072301822324428,0,N,1.2486890458659092,0.41588533873779582,0
0.1444888886249317,0,N,2.1688739481258401,0.2810754205111578,0
0.2954270666992167,0.40000000000000002,N,1.642520718029896,0.22399306208018921,0.65766705220582056
0.99777019083341556,0.40000000000000002,N,0.4689583300056947,0.38036565170229808,0
0.27905579348162779,0,N,1.0079104406092545,0.43837666791337537,0.39460023132349231
0.184499288170342,0,N,1.0699715927393612,0.11484038233699979,0
0.3199839765255999,0,N,0.3551017802331678,0.18726412851116769,0.39460023132349231
0.1339994914099501,0,N,1.7633766458622091,0.079025189548968894,0.26306682088232819
0.16495298014691781,0.40000000000000002,Y,0.67054041812754539,0.025829007728295598,0.26306682088232819
0.092708535834451905,0,N,0.076059908249679703,0.163831238351242,0
1.0072301822324428,0.40000000000000002,N,1.4969336543863367,0.4991341274171156,0
0.34106819203310068,0,Y,1.868833941962992,0.22339638211545779,0.65766705220582056
0.46784633963173178,0,N,1.0699715927393612,0.17106754920851719,0.13153341044116409
0.89917977899635648,0,N,1.5277309178493976,0.22339638211545779,0
0.13332665688566661,0.40000000000000002,N,0.74193407433736769,0.11258440997534611,0.26306682088232819
0.74767108685539796,0.80000000000000004,N,0.8903208892048412,0.62400731043609536,0.26306682088232819
0.5136238922424291,0,Y,1.2608213011695395,0.3355645332304083,0
0.27905579348162779,0,Y,1.5183984137696822,0.2482580224509327,0.26306682088232819
1.1310999483390096,1.6000000000000001,Y,0.96964717388242161,0.39898863008152857,0.65766705220582056
0.15503099637868209,0,N,1.7745756507578676,0.26288257380150287,0
0.52988974438248038,0,N,1.4129411176688993,0.53933245664106766,0.13153341044116409
0.068151626008068594,0,N,1.0709048431473329,0.1189028032918777,0
1.158850496690794,0,N,1.6905831140404295,0.81740836696952079,0.26306682088232819
0.2204168694113551,0,Y,0.43722781613466261,0.40283796170400182,0.26306682088232819
0.43408678986031002,0,Y,2.0881477878363022,0.27933512880902323,0.13153341044116409
0.2318767606636673,0,N,1.9780242396956611,0.46121906866320378,0.39460023132349231
0.82583151398967436,0.40000000000000002,N,0.9472491640911046,0.45766621239820648,0.39460023132349231
0.58911778623899214,0,N,1.2580215499456249,0.16538581341435399,1.0522672835293128
0.54846245774864655,0,N,1.0513065845799303,0.39789968914589391,0.13153341044116409
0.73645924519729167,0,Y,1.7391121352549497,0.20476669108662399,0.26306682088232819
0.22621502867591781,0.40000000000000002,N,0.50955472275245617,0.2058888223452969,0.13153341044116409
0.57314339237213274,0.40000000000000002,Y,0.84039199237836426,0.26387298795796138,0.26306682088232819
0.3445408863519831,0,N,0.48762333816512532,0.20039108773525771,0.13153341044116409
0.1109742878277882,0.40000000000000002,N,0.56368324641480505,0.097221989263390096,0.39460023132349231
0.4928094306686272,0.40000000000000002,Y,0.54035198621551672,0.4663197127567143,0.39460023132349231
0.17053409601655031,0,N,0.41063017950747399,0.1208420131772547,0.13153341044116409
0.55811158696325569,0,N,1.9406942233768001,0.28306437858859418,0
0.37728343278716081,0,N,0.29864013055089011,0.4088644293477886,0.26306682088232819
0.34971892163103119,0,N,0.97711317714619361,0.30491778229688038,0.13153341044116409
0.43408678986031002,0,Y,1.8450360565597179,0.48606526990459142,0.52613364176465638
0.1894695819142426,0,Y,0.62107814650505444,0.17642521319683571,0.13153341044116409
0.2997679345978197,0.40000000000000002,Y,1.2402897921941656,0.1764575830849224,0
0.093018597827209296,0.40000000000000002,N,0.2823082484113883,0.14881138652403739,0
0.17053409601655031,0.80000000000000004,N,0.85579062410989448,0.32284301804235321,0.26306682088232819
0.41002597922233852,0.80000000000000004,N,0.98784555683786635,0.23539628747116589,0.26306682088232819
0.15711461297001161,0,N,1.7675762726980813,0.112771916654263,0.13153341044116409
0.67153226391389964,0.40000000000000002,Y,0.98831218204185201,0.22496766421758219,0.65766705220582056
0.43408678986031002,0,N,0.735867946685553,0.13948826207510981,0
0.1240247971029457,0,N,0.93231715756356015,0.082513604377775204,0.9207338730881488
0.67506697063133358,0,Y,1.1096347350781512,0.33933129926276179,0.13153341044116409
0.35656509043111378,0.40000000000000002,Y,0.67334016935146013,0.62117308060362142,0.13153341044116409
0.52617520170924725,0,N,1.6588526001693975,0.53575834365232677,0
0.58911778623899214,0.40000000000000002,Y,1.7601102694343089,0.37256637329829878,0.13153341044116409
0.1240247971029457,0,Y,0.92391790389181638,0.10619135707822749,0.39460023132349231
0.1240247971029457,0,N,1.7162475002596471,0.057014486084980401,0.39460023132349231
1.0200915536920181,0,N,1.1544307546607848,1.8056424785918519,0.39460023132349231
0.68734542554452505,0.40000000000000002,N,0.37843304043245612,0.3836380683838716,0.39460023132349231
0.3117983399168055,0.40000000000000002,Y,0.43489469011473381,0.16456373759294529,0.13153341044116409
0.168034996354926,0,N,1.470336017759148,0.16474169739242639,0.13153341044116409
0.43408678986031002,0.40000000000000002,Y,0.8683895046175103,0.18610388431974759,0.26306682088232819
0.13937286574443519,0.40000000000000002,N,0.84739137043815072,0.22733282901278179,0.13153341044116409
0.2821564134092015,0,Y,1.3060839459561586,0.25074423869397722,0.13153341044116409
0.6464172425005531,0.40000000000000002,Y,0.67194029373950281,0.32554799207746737,0.13153341044116409
0.97262106260086578,0,N,0.34203627452156621,0.6031943674163095,0.26306682088232819
0.49645886032338138,0,N,0.85765712492583779,0.42257807414720072,0.13153341044116409
0.3036127033080111,0,N,1.3387477102351619,0.16062564982571831,0.39460023132349231
0.32816961313439441,0,N,0.3882321697161572,0.13256334357442881,0
0.40928183043972088,0,N,1.8333704264600741,0.2114627828208305,0.26306682088232819
0.32816961313439441,0.40000000000000002,N,0.72560219219786581,0.2156395425739501,0.13153341044116409
0.72532181841744714,0,N,0.91131902338420079,0.51945190065117008,0.13153341044116409
0.8211929865780242,0,N,0.6453426571123142,0.48772560649145191,0.13153341044116409
0.049721541158570901,0,N,0.95471516735487705,0.064371251710135705,0.13153341044116409
0.1085216974650775,0,N,0.46615857878178008,0.18610388431974759,0.26306682088232819
0.48096196192536828,0,Y,1.8427029305397893,0.41015221388167,0
0.061857367555094099,0,N,1.8907653265503237,0.1485627947337311,0.26306682088232819
0.3445408863519831,0.40000000000000002,N,0.32523776717807878,0.36099078198251028,0.39460023132349231
0.27905579348162779,0,N,1.3322149573793614,0.29798137770687833,0.52613364176465638
0.077515498189341003,0.40000000000000002,N,1.7741090255538821,0.034447751478857799,0.26306682088232819
0.37759349477991822,0,Y,1.7311795067871916,0.33856590803800268,0.13153341044116409
0.093018597827209296,0.40000000000000002,Y,1.0839703488589341,0.099088031268091806,0
0.1012042344360037,0,Y,1.5496623024367284,0.079149000641650605,0.26306682088232819
0.16086016184252061,0.40000000000000002,N,0.4451604446024206,0.2304073717010513,0.13153341044116409
0.89917977899635648,0,Y,1.6177895822186503,0.65774426690696708,0.65766705220582056
0.43408678986031002,0,N,0.7685317109645563,0.22339638211545779,0
0.31449587925379457,0.80000000000000004,Y,1.0555062114158025,0.18433040229457481,0.13153341044116409
0.31936075192015762,0,N,2.0302862625420675,0.12930338258711899,0
0.068151626008068594,0,Y,1.6555862237414971,0.047345958521468903,0.26306682088232819
0.31039996032946982,0,Y,1.5757933138599314,0.27339070466038701,0
0.27905579348162779,0,Y,1.8142387930966579,0.1959177034546711,0.13153341044116409
0.52617520170924725,0,N,1.0783708464111048,0.3347144880356529,1.5784009252939697
0.65325410944085305,0,Y,1.723713503523419,0.32883719038304898,0.13153341044116409
0.87307255920618643,0,N,1.1810283912879731,0.48291905103555849,0
0.7728977305861372,0,N,1.8511021842115327,0.96653144419013481,0.13153341044116409
0.13952789674081389,0,N,1.5692605610041308,0.20475013321760269,0.39460023132349231
0.16654049754983549,0.40000000000000002,N,0.37516666400455573,0.10524047296943249,0
0.3679257618457436,0,N,1.7577771434143801,0.47945413048036339,0
0.26351858702455627,0.40000000000000002,N,0.87398900706533933,0.086040803404289101,0.26306682088232819
0.33894426738271272,0,N,0.99531156010163835,0.17762357032100309,0.13153341044116409
0.33707459356638581,1.6000000000000001,Y,0.80772822809936085,0.1767240752741705,0.13153341044116409
0.27905579348162779,0,N,1.9327615949090424,0.18155598962856509,0.26306682088232819
0.1240247971029457,0,N,2.1819394538374413,0.2660164115612676,0
0.83623719446661149,0,Y,1.7853080304495399,0.37894003409656363,0.26306682088232819
0.1953390554371395,0,N,1.7507777653545935,0.2090530907832629,0.52613364176465638
0.88228140039108005,0,N,0.89452051604071325,0.68617300924159741,0.26306682088232819
0.3041770161348295,0.80000000000000004,Y,0.57954850335032126,0.26840096845532091,0.78920046264698474
0.27905579348162779,0.40000000000000002,Y,0.33223714523786529,0.13525049179559651,0.26306682088232819
0.080430080921260305,0,N,1.3924096086935251,0.11618858071731029,0.26306682088232819
0.15503099637868209,0,N,0.5170207260162285,0.11047432586506931,0.13153341044116409
0.084820558738704505,0,Y,1.8044396638129567,0.050299524346889203,0.26306682088232819
0.12871913567329221,0,N,0.38123279165637058,0.15332825385705379,0
0.33176013101052459,0,N,1.8902987013463373,0.39629118913096928,0.26306682088232819
0.30695827220986299,0.40000000000000002,Y,0.97151367469836436,0.17637374954987761,0.39460023132349231
0.1485817069293289,0,Y,1.5449960503968707,0.1104096606738915,0.26306682088232819
0.42959709220518327,0,Y,1.707381621383917,0.16257888169026649,0.13153341044116409
0.143825355960431,0,N,1.9635588583721024,0.11979998620384689,0.39460023132349231
0.4370261775516498,0,N,1.6168563318106788,0.32131156432787461,0.39460023132349231
0.66278851571814201,0,Y,0.95798154378277722,0.33342416761192128,0.26306682088232819
0.3199839765255999,0,Y,1.5356635463171553,0.14035844521867491,0.78920046264698474
0.15472093438592471,0.80000000000000004,N,0.63834327905252775,0.27886897258657678,0.13153341044116409
0.3445408863519831,0.80000000000000004,N,0.28090837279943098,0.4298192330291894,0
0.076746544447302806,0,Y,0.40783042828355931,0.078186182933560999,0.9207338730881488
0.093018597827209296,0.40000000000000002,N,0.91785177624000158,0.13525049179559651,0.13153341044116409
0.32816961313439441,0,N,2.0876811626323164,0.5756364794902048,0
0.143825355960431,0.40000000000000002,Y,0.7069371840384352,0.1678633777979098,0.26306682088232819
0.43408678986031002,0,N,1.0051106893853397,0.2466115586732521,0
0.13952789674081389,0.80000000000000004,N,0.84505824441822197,0.16372838564232139,0
0.55610548587011566,0.40000000000000002,N,1.3242823289116037,0.64159109607175069,0.13153341044116409
0.37191315907260331,0.40000000000000002,N,1.1045018578343078,0.48424994569689178,0.52613364176465638
0.0918403622547313,0,N,1.6145232057907499,0.24589621398053491,0.13153341044116409
0.074290853464664394,0,N,0.90851927216028616,0.084071610350684403,0
0.20154029529228679,0.40000000000000002,N,1.0480402081520299,0.15082719519988669,0.13153341044116409
2.4494897427831779,0,Y,0.75219982882505443,0.29783228230069098,0.39460023132349231
0.34971892163103119,0,N,1.8324371760521023,0.83221333942442666,0
0.2472558355044325,0.40000000000000002,N,0.18011732873850561,0.26738362911545399,0.13153341044116409
0.38136694923177528,0.40000000000000002,Y,0.5170207260162285,0.33029405910193621,0.13153341044116409
0.14262851666838749,0.40000000000000002,N,1.0811705976350197,0.083176590403587297,0.52613364176465638
0.67104236596534284,0,N,0.37656653961651299,0.42183349213621157,0.13153341044116409
0.3303214433641305,0,Y,1.3905431078775821,0.54287188760685856,0.52613364176465638
0.48933983696967231,0,N,1.3112168232000021,0.24997847454423999,0.39460023132349231
0.27905579348162779,0,N,1.644387218845839,0.37256637329829878,0
0.091480690343132706,0.40000000000000002,N,0.79886234922363097,0.29428196192554379,0
0.25816381640963659,0.40000000000000002,N,0.27950849718747361,0.27787922969507861,0.13153341044116409
0.63346905368300555,0,N,1.5636610585563011,0.31931865324567188,0.26306682088232819
0.13332665688566661,0,N,1.6653853530251983,0.15776158599500781,0
1.7034805882089594,0.40000000000000002,Y,1.0928362277346635,0.6950221460435414,0.13153341044116409
0.26244267190968829,0,N,1.8305706752361592,0.234937142238305,0.13153341044116409
0.086569308377856105,0,N,0.94491603807117597,0.112771916654263,0.26306682088232819
0.27905579348162779,0,N,0.54828461468327483,0.16538581341435399,0.13153341044116409
0.0049113819652766002,0.40000000000000002,N,0.13205493272797161,0.057240926131595898,0
0.46509298913604641,0,Y,1.0979691049785072,0.33113023148751158,0.26306682088232819
0.2325464945680232,0,Y,1.923429090829327,0.15813451097296491,0
0.68981351900687371,0,N,1.9476936014365869,0.69321025274563897,0
0.27905579348162779,0,Y,1.8007066621810703,0.092872639830472004,0.13153341044116409
0.58911778623899214,0,N,0.80912810371131783,0.5963213600725602,0.13153341044116409
0.4058649472795347,0.40000000000000002,Y,0.8683895046175103,0.095176644929286597,0.13153341044116409
0.19769552658209541,0.80000000000000004,N,1.1534975042528133,0.2747108590823551,0.13153341044116409
0.58911778623899214,0.40000000000000002,N,0.5963470106938088,0.37256637329829878,0
0.056741344674597599,0,N,1.0349747024404288,0.052410279722126397,0.52613364176465638
0.48933983696967231,0,N,0.35463515502918208,0.50031555374728376,0
0.1240247971029457,0,N,1.917362963177512,0.14881138652403739,0.13153341044116409
0.37207439130883718,0,N,2.0144210056065512,0.14881138652403739,0.9207338730881488
0.74414878261767436,0,Y,1.2687539296372974,0.25161770357734831,0
0.1218419606739338,0,N,0.77273133780042835,0.1077808379192763,0.65766705220582056
0.31936075192015762,0,N,1.7503111401506075,0.76582590611346368,0
0.58911778623899214,0.80000000000000004,Y,0.66867391731160231,0.33113023148751158,0
0.89917977899635648,0.80000000000000004,Y,1.1147676123219947,0.3192913551372854,0.39460023132349231
0.44958988949817819,0,N,1.2892854386126711,0.25654523589609107,0
0.1506808266202963,0,N,1.0051106893853397,0.2910052193142259,0
0.071314258334193706,0,N,1.8651009403311061,0.1227066380670402,0.13153341044116409
0.48473851699715298,0,N,1.6807839847567287,0.30979564100855927,0.26306682088232819
0.15472093438592471,0,N,1.363012220842422,0.1651096251756789,0.26306682088232819
0.41002597922233852,0,N,1.1441650001730981,0.132253517502742,0
0.13952789674081389,0,N,2.0111546291786517,0.34148926694020842,0.13153341044116409
0.0918403622547313,0.40000000000000002,Y,0.90945252256825782,0.1178436963544796,0.26306682088232819
0.2480495942058914,0.40000000000000002,N,1.7372456344390064,0.22339638211545779,0.13153341044116409
0.90228039892392997,0.40000000000000002,N,0.73400144586960958,0.70120651012299517,0.39460023132349231
0.4095546849933473,0,N,1.7475113889266931,0.40724265320364877,0
0.4709221545998849,0.40000000000000002,N,0.27717537116754498,0.24111777706797929,0.26306682088232819
0.43408678986031002,0,N,1.8109724166687573,0.44715136888971918,0.52613364176465638
0.2954270666992167,0,N,1.0424407057042009,0.074425309115859206,0.26306682088232819
0.31006199275736429,0,N,1.7568438930064083,0.37256637329829878,0
0.9909798331920292,0,N,1.9061639582818533,0.81909928340457394,0.13153341044116409
0.34044806804758598,0,N,1.5832593171237035,0.35705269421528329,0.26306682088232819
0.27905579348162779,0,N,1.0209759463208561,0.29798137770687833,0
0.43718740978788367,0,N,1.550128927640714,0.18734699244126979,0.9207338730881488
0.055811158696325497,0,N,0.636010153032599,0.069254033031523596,0
0.58911778623899214,0,Y,0.5062883463245561,0.93195384023395222,0.52613364176465638
0.16495298014691781,0,N,1.3406142110511052,0.17422555250685351,0
0.13425684286393871,0,N,0.73960094831743894,0.052646490403164402,0.26306682088232819
0.55804027270492151,0,Y,0.86885612982149596,0.31451769166444771,0.52613364176465638
1.0058349032650344,0,N,0.689672051490962,0.41532595127086008,0
1.1831345519635508,0.40000000000000002,N,1.3191494516677602,0.64866346910871597,0
0.55501096703568209,0,Y,1.206226152303205,0.46952686756714529,0.52613364176465638
0.1894695819142426,0.80000000000000004,N,0.98037955357409401,0.13222927737917481,0
0.40616880803243688,0,N,1.8119056670767288,0.61824054774695802,0
0.2821564134092015,0,Y,1.3224158280956602,0.33444516161657228,0
0.33579403753629788,0,N,0.69853793036669154,0.19571542894662711,0.26306682088232819
0.0204144816031448,0,N,1.4026753631812123,0.082102566467070898,0.13153341044116409
0.50775751933945978,1.2,Y,0.81286110534320433,0.25883917202050077,0.26306682088232819
0.20183175356547869,0,Y,1.8660341907390776,0.1863375591109355,0
0.1506808266202963,0,N,1.9892232445913201,0.2910052193142259,0
0.16586456240562439,0.40000000000000002,N,0.84132524278633591,0.13494708003353059,0.39460023132349231
0.74414878261767436,0.40000000000000002,Y,0.99904456173352463,0.53239135319634334,0.13153341044116409
0.64651336171830787,0.40000000000000002,Y,1.1488312522129556,0.6515470742082714,0.13153341044116409
0.43592235685743358,0,Y,0.59541376028583715,0.31163871083461891,0.65766705220582056
0.1271254170305193,0,N,0.39943117461181549,0.31662762660473343,0.13153341044116409
0.71190233537090841,0.40000000000000002,Y,1.0895698513067631,0.51022894385132189,0.13153341044116409
0.27905579348162779,0,N,0.53241935774775873,0.059309391814332799,0.52613364176465638
0.3117983399168055,0.40000000000000002,Y,0.29350725330704669,0.27451194089911279,0
0.40618121051214717,0.80000000000000004,N,0.58094837896227858,0.2099710829090021,0.26306682088232819
0.58911778623899214,0,N,0.52308685366804353,0.16538581341435399,0.78920046264698474
0.85670128598859752,0.40000000000000002,Y,0.84692474523416506,0.42671508009767001,0.13153341044116409
0.3117983399168055,0,Y,0.41576305675131742,0.13707670541265241,0
0.094407675554762205,0,N,1.895431578590181,0.1073847170076903,0
0.43408678986031002,0.80000000000000004,N,0.87492225747331098,0.44715136888971918,0.13153341044116409
0.1240247971029457,0,N,1.2664208036173683,0.14881138652403739,0
0.077515498189341003,0,N,0.20764821577366571,0.1040603891691851,0.13153341044116409
0.34106819203310068,0.40000000000000002,Y,1.0858368496748774,0.099088031268091806,0.65766705220582056
0.34106819203310068,0,Y,0.69387167832683372,0.29798137770687833,0.13153341044116409
0.27905579348162779,0.40000000000000002,N,1.2654875532093968,0.2127413934002543,0
0.43408678986031002,0,N,0.41203005511943119,0.18610388431974759,0.13153341044116409
0.43408678986031002,0.80000000000000004,N,0.97478005112626476,0.74549135125540111,0
0.52617520170924725,0.40000000000000002,N,0.83385923952256358,0.2974841195412703,0.39460023132349231
1.2092417717537207,0,Y,0.8287263622787201,0.31368345848875773,0.9207338730881488
0.29145827319192241,0,N,1.7274465051553054,0.51676400658004651,0.26306682088232819
0.58911778623899214,0,Y,1.4208737461366574,0.37256637329829878,0
0.1838853654246824,0,N,1.8944983281822096,0.17194765215649599,0.39460023132349231
0.43408678986031002,0,N,1.7260466295433481,0.22339638211545779,0.13153341044116409
0.58911778623899214,0,Y,0.8935872656327416,0.27085958824999651,0.26306682088232819
0.093018597827209296,0,N,0.024264510607259801,0.14881138652403739,0
0.58911778623899214,0,N,1.22769091168655,0.33113023148751158,0.26306682088232819
1.0219643281282726,0.40000000000000002,N,0.64627590752028585,0.22990563843570791,0.13153341044116409
0.062012398551472801,0,N,1.2304906629104644,0.060115730201671602,0.26306682088232819
0.57817879913451231,0,N,1.4143409932808564,0.24387242471015719,0
0.57912758883234983,0,N,1.6145232057907499,0.38586994979194927,0.13153341044116409
0.96880419947002261,0,Y,1.8599680630872628,0.48064749040982618,0.13153341044116409
0.42588254953195009,0,N,1.9364945965409284,0.1095453697449781,0.26306682088232819
0.74414878261767436,0,Y,1.0961026041625641,0.31041223516711358,0.26306682088232819
1.0342427830414644,0.80000000000000004,Y,0.73446807107359557,0.42671508009767001,0
0.42947306740808039,0,N,0.79979559963160274,0.42567089015939019,0.39460023132349231
1.0219643281282726,0,N,0.86745625420953854,0.35143398274239479,0.52613364176465638
0.78916978396604354,0,N,1.6061239521190065,0.56333346071241319,0.13153341044116409
0.54459288407903461,0,N,2.0498845211094694,0.39524021195809061,0
0.16654049754983549,0,N,1.9178295883814975,0.11844037631921089,0.65766705220582056
0.1240247971029457,0,Y,1.3826104794098244,0.2190089943347881,0
0.1240247971029457,0,N,0.39056529573608612,0.092872639830472004,0
0.18541707166890381,0,N,1.3298818313594327,0.1297922126482251,0.39460023132349231
1.5929744939902348,0,N,1.6467203448657679,0.5205032507490267,0.13153341044116409
0.17271693244556219,0,N,1.5286641682573689,0.13965660041015959,0.26306682088232819
0.61702336558715498,0,N,1.7694427735140243,0.48677464779766139,0
0.85670128598859752,0.80000000000000004,N,0.8823882607370831,0.2665624483139924,0
0.1240247971029457,0.40000000000000002,N,0.77086483698448538,0.10619135707822749,0.13153341044116409
0.2821564134092015,0,N,0.73400144586960958,0.21487236130929671,0.13153341044116409
0.71190233537090841,0.40000000000000002,Y,0.75873258168085522,0.2745731751804934,0.39460023132349231
0.093018597827209296,0,N,0.16938494904683291,0.13525049179559651,0
0.58911778623899214,0.80000000000000004,N,1.1982935238354468,0.27085958824999651,0
0.2041448160314486,0,N,0.095658166817082002,0.22590243796732951,0.13153341044116409
0.34971892163103119,0,N,1.6308550879302519,0.4575559757747224,0
0.074290853464664394,0,N,1.3364145842152335,0.062964056598312404,0.13153341044116409
0.2325464945680232,0,N,1.714380999443704,0.2109655246552225,0
0.15472093438592471,0.40000000000000002,Y,1.2860190621847709,0.11133242623934859,0
0.58911778623899214,0,N,1.3312817069713905,0.18610388431974759,1.183800693970477
0.48765309972907223,0.40000000000000002,N,0.93978316082733238,0.24916698979220539,0.13153341044116409
0.1240247971029457,0,N,0.1763843271066195,0.1239497461885624,0
0.46158928861788812,1.2,N,0.64627590752028585,0.26295954551695327,0.26306682088232819
0.0040928183043972,0,Y,0.37236691278064121,0.084071610350684403,0
0.13425684286393871,0.80000000000000004,N,0.37096703716868379,0.11322367797256019,0.26306682088232819
0.1813056496449412,0.40000000000000002,N,1.0209759463208561,0.1131332063729078,0
0.27905579348162779,0,N,0.68593904985907594,0.2127413934002543,0.39460023132349231
0.3445408863519831,0.80000000000000004,Y,0.46242557714989402,0.22548476199201761,0
0.31365251063349447,0,N,1.6084570781389349,0.27599871820123217,0
0.15503099637868209,0,N,0.030797263463060501,0.17864538476060551,0
0.20895697815904291,0.40000000000000002,N,1.0573727122317451,0.1279143116292244,0.52613364176465638
0.60599135988484787,0.40000000000000002,Y,1.0597058382516742,0.084768532549490599,0.26306682088232819
0.081310656980691204,0,N,1.2267576612785784,0.048764415967626602,0.65766705220582056
0.18913781558199219,0,N,1.4740690193910342,0.1957723372982634,0
0.32368921733905048,0,Y,0.3928984217560148,0.094443101497644996,0.26306682088232819
0.15503099637868209,0.80000000000000004,Y,0.47782420888142407,0.14881138652403739,0.26306682088232819
1.1241607609411,0,N,1.1875611441437743,0.42713961789257637,0.52613364176465638
0.70046414845808924,0.40000000000000002,N,0.99904456173352463,0.43952691771538632,0.13153341044116409
0.3445408863519831,0,Y,1.6733179814929564,0.12869476902309299,0.78920046264698474
0.73615538444438944,0,N,0.67893967179928916,0.40972961529664909,0
0.58911778623899214,0,Y,1.8450360565597179,0.4258413914593121,0.52613364176465638
0.27905579348162779,0,N,0.4008310502237728,0.29798137770687833,0.13153341044116409
0.34863370465638038,0,N,1.4432717559279735,0.2170744087191378,0.26306682088232819
0.43408678986031002,0,N,1.6947827408763017,0.18610388431974759,0.13153341044116409
0.16887216373537081,0,N,1.1884943945517457,0.28246769862386278,0.26306682088232819
0.4649968699182917,0.40000000000000002,Y,0.33177052003387952,0.1984961813372621,0.13153341044116409
0.27905579348162779,0,N,0.99951118693751062,0.37256637329829878,0.26306682088232819
0.58911778623899214,0,N,0.51515422520028542,0.29798137770687833,0.26306682088232819
0.1567673435381233,0,N,1.470336017759148,0.074922492696471596,0
0.68270999875280247,0,N,1.5967914480392906,0.40841154925455753,0.65766705220582056
0.43408678986031002,0.80000000000000004,N,0.84739137043815072,0.22339638211545779,0.65766705220582056
0.3445408863519831,0,N,1.3121500736079734,0.36099078198251028,0
0.20154029529228679,0.40000000000000002,Y,0.53521910897167346,0.27933512880902323,0.26306682088232819
0.37056128878418121,0,N,0.90431964532441445,0.26796509374108468,0
1.2976466471287005,0,Y,0.65560841160000094,0.45622090435363599,0.26306682088232819
0.58911778623899214,0,Y,1.3588125940065501,0.48083492250374738,0.13153341044116409
0.43718740978788367,0,N,1.3658119720663369,0.18734699244126979,0
0.67506697063133358,0.40000000000000002,N,1.3910097330815685,0.32626632017000828,0
0.67847145131180941,0,Y,0.8716558810454107,0.4263011333721376,0
0.65325410944085305,0.40000000000000002,N,0.394764922571958,0.32883719038304898,0
1.0342427830414644,0,N,0.80539510207943177,0.85378876485414346,0
0.052710538768751897,0,N,1.1646965091484716,0.044392392696048701,0.39460023132349231
0.15503099637868209,0.80000000000000004,Y,0.62994402538078398,0.20305504002279651,0.26306682088232819
0.074762147693655606,0,N,1.8044396638129567,0.21166170100407281,0.13153341044116409
0.3199839765255999,0,N,0.52728648050391536,0.1685018253601723,0.52613364176465638
0.66278851571814201,0,N,1.2001600246513899,0.52117697701420407,0.26306682088232819
0.1118951719462776,0,N,0.49602259183686909,0.17151505918206569,0
0.062012398551472801,0,N,1.2211581588307494,0.22339638211545779,0
0.21704339493015501,0,N,1.7703760239219957,0.17012136395444441,0.39460023132349231
0.9629812352460394,0,N,1.4050084892011412,0.3981452975363764,0
0.071221239736366501,0,N,2.1432095619066227,0.22319298883248001,0
0.2480495942058914,0,N,1.2150920311789344,0.1338943874057533,0.39460023132349231
0.87800564551095595,0,Y,0.49368946581694018,0.3640773328550701,0.13153341044116409
0.52710538768751936,0.40000000000000002,N,0.48529021214519641,0.38322136201350238,0.39460023132349231
0.093018597827209296,0,N,1.2183584076068348,0.1189773882874692,0.52613364176465638
0.1444888886249317,0,N,0.13765443517580089,0.1504096683945659,0.13153341044116409
0.90228039892392997,0,N,1.9425607241927436,0.89764474226189872,0.26306682088232819
0.14262851666838749,0,N,1.6523198473135967,0.1189773882874692,0.39460023132349231
0.29455889311949601,0,N,0.99717806091758165,0.26068887991116801,0
0.080430080921260305,0,N,1.6859168620005722,0.133670632418979,0.26306682088232819
0.58911778623899214,0.40000000000000002,N,0.72000268975003678,0.5963213600725602,0
0.48933983696967231,0.40000000000000002,N,0.78113059147217223,0.31256274434500098,0.13153341044116409
0.52988974438248038,0,N,0.32430451677010719,0.29946979587890071,0.13153341044116409
0.34416261072081922,0,N,1.0046440641813541,0.40985208385941019,0.13153341044116409
0.27905579348162779,0,N,0.31263888667046308,0.29798137770687833,0.39460023132349231
0.21396757996200191,0,N,0.11758955140441291,0.1305927334059078,0.26306682088232819
0.30695827220986299,0,N,1.9808239909195764,0.32482899271996601,0.39460023132349231
0.66278851571814201,0.80000000000000004,N,0.82172698421893364,0.52117697701420407,0
0.27905579348162779,0,Y,1.2206915336267634,0.22452530060872949,0.26306682088232819
0.51389674679605557,0.40000000000000002,N,0.54408498784740278,0.29092063992922529,0.13153341044116409
0.3182786355654344,0,N,0.71207006128227868,0.41974138300987229,0
0.27771632567291599,0,N,1.2603546759655535,0.18529836636736019,0.52613364176465638
0.391099795184429,1.2,N,0.42089593399516079,0.28974719419358541,0.26306682088232819
0.36408719437540749,1.2,Y,0.82126035901494798,0.2108395505976686,0.13153341044116409
0.14799879038294511,0,N,1.9943561218351635,0.15912067378467459,0.13153341044116409
0.056741344674597599,0,N,1.6154564561987212,0.1504096683945659,0
0.54570910725296118,0.80000000000000004,Y,0.69107192710291943,0.30792601892406918,0.13153341044116409
0.29224893127345369,0,Y,0.69153855230690509,0.25883671071564629,0
0.2443009447134549,0,N,0.4712914560256235,0.1944201113281909,0.13153341044116409
0.65584932832023202,0,N,1.929961843685128,0.36680177357403349,0.78920046264698474
0.31936075192015762,0,N,1.7218470027074759,0.28057570104069529,0.13153341044116409
0.049609918841178199,0,N,1.5174651633617109,0.064281749715425995,0.26306682088232819
0.25115021413346511,1.2,N,0.68267267343117566,0.30815208604570682,0
0.95902174359852776,0,Y,1.714380999443704,0.29006805884461978,0.13153341044116409
0.34971892163103119,0,N,0.43862769174661981,0.4357505302186015,0.13153341044116409
0.22609720511867001,0.40000000000000002,N,0.69807130516270577,0.77271487464626953,0.26306682088232819
0.3445408863519831,0,N,1.7064483709759459,0.30076585934729277,0.39460023132349231
0.27905579348162779,0,N,0.3233712663621357,0.14881138652403739,0
0.0714568868508621,0.40000000000000002,Y,1.0354413276444143,0.034851927569967703,0.26306682088232819
0.16089116804179629,0.40000000000000002,N,0.13065505711601449,0.1842840104273169,0.26306682088232819
0.95809155762025555,0,N,0.71113681087430725,0.47549366721445901,0.52613364176465638
0.74414878261767436,0.40000000000000002,N,0.53288598295174472,0.62118300040803509,0.13153341044116409
0.15753629728016161,0,Y,2.0876811626323164,0.12922320371685819,1.5784009252939697
0.15472093438592471,0,N,2.0601502755971564,0.1485627947337311,0.26306682088232819
0.62322460544230229,0,Y,0.85485737370192305,0.2417557771202683,0.9207338730881488
1.3271149389203605,0,Y,1.6681851042491129,0.50224790181306633,0.26306682088232819
0.26665331377133328,0,N,1.755910642598437,0.35764937418001469,0.26306682088232819
0.48933983696967231,0.40000000000000002,Y,1.2440227938260515,0.15610206984309871,0
0.047377472493325197,1.2,N,0.64954228394818614,0.1710512896794783,0
0.13952789674081389,0,N,0.091925165185195806,0.24094578406814551,0.39460023132349231
0.15503099637868209,0,Y,0.33737002248170878,0.089143390050900995,0.52613364176465638
0.54075431660869844,0.40000000000000002,N,0.3938316721639864,0.45809544904783511,0.13153341044116409
0.89917977899635648,0.80000000000000004,N,0.56834949845466287,0.44715136888971918,0.78920046264698474
0.3445408863519831,0.40000000000000002,N,1.0648387154955177,0.2577480681199939,0.39460023132349231
0.67475690863857618,0.80000000000000004,N,1.00837706581324,0.56554259369683546,0
0.43408678986031002,0,N,0.30237313218277628,0.30201299505857693,0.52613364176465638
0.3117983399168055,0,N,0.66494091567971636,0.2057943231558825,0.13153341044116409
0.1767353358716976,0,Y,0.35883478186505402,0.090499494440744205,0
0.31365251063349447,0,Y,0.92438452909580238,0.34508799297749448,0.26306682088232819
0.52988974438248038,0,Y,1.0382410788683289,0.32088605692802558,0
0.0217043394930155,0,N,0.63787665384854209,0.070082746917539906,0.13153341044116409
0.46509298913604641,0,Y,1.6168563318106788,0.66261914221882223,0
0.10643187963389281,0,N,0.2309794759729541,0.16494412107046161,0.26306682088232819
0.062012398551472801,0.40000000000000002,N,0.97058042429039282,0.1115188887283271,0
0.73645924519729167,0,Y,0.29444050371501818,0.1674712098910901,0
0.83468688450282469,0,N,0.2855746248392888,0.34671021663160778,0.26306682088232819
0.41238245036729448,0.40000000000000002,N,0.62107814650505444,0.26628275458052458,0
0.83468688450282469,0.40000000000000002,N,1.1604968823125996,0.59461657082832708,0
0.12576114426238691,0.40000000000000002,N,0.34250289972555209,0.15048209042528521,0.26306682088232819
0.73645924519729167,0,Y,0.54081861141950249,0.30732933895933789,0.13153341044116409
0.16797918519622959,0,N,1.1007688562024216,0.095372728882696406,0
0.33176013101052459,0,Y,1.5771931894718887,0.43595616105144702,0.13153341044116409
0.2752110247714365,0,N,1.4530708852116749,0.29428196192554379,0
0.1093898710447981,0,Y,1.8464359321716757,0.074690458775186694,0.13153341044116409
0.71190233537090841,0.40000000000000002,N,1.0797707220230623,0.44640551893380509,0.13153341044116409
0.2287017258578318,0.40000000000000002,Y,1.3877433566536677,0.15582237610963079,0
0.15850369069756459,0,N,1.1810283912879731,0.19784289136087679,0.26306682088232819
1.1906380521882789,0,Y,1.0293751999925995,0.58737116060158978,0
0.15503099637868209,0,N,0.090991914777224306,0.17864538476060551,0
0.46171331341499111,0,Y,0.57628212692242098,0.32887202157599021,0
1.0131554669140359,0,N,1.88563244930648,0.6381701806639547,0.13153341044116409
0.56332062844157949,0.40000000000000002,N,0.41389655593537439,0.47618976897831372,0.13153341044116409
0.32816961313439441,1.2,Y,0.97571330153423641,0.24649639944005899,0.13153341044116409
0.1085216974650775,0,N,0.26131011423202899,0.1594663752392409,0.39460023132349231
1.3565832307120202,0,N,0.80306197605950314,0.6950221460435414,0.78920046264698474
0.37835934790202891,0,N,1.7283797555632767,0.18901128203289669,0
0.120924177175372,0,Y,0.39616479818391509,0.1256643060672179,0.26306682088232819
0.16052219427041509,0,N,1.838036678499932,0.1839289858483017,0.39460023132349231
1.1782355724779845,0,N,1.2673540540253398,0.38748337241658293,0.13153341044116409
0.85887171993789901,0,N,0.34110302411359478,0.85587714473070331,0
0.54671060748956746,0,N,1.3168163256478314,0.2134398818839679,0
0.084820558738704505,0,N,0.96544754704654945,0.069296322724024001,0.39460023132349231
0.33894426738271272,0.40000000000000002,N,0.60054663752968052,0.1973993343920947,0.26306682088232819
0.21704339493015501,0.40000000000000002,Y,0.94024978603131837,0.10812862775371911,0.39460023132349231
0.15503099637868209,0,N,0.1418540620116728,0.14881138652403739,0.52613364176465638
0.086569308377856105,0.40000000000000002,N,0.81099460452726124,0.21720008443670941,0.26306682088232819
1.0342427830414644,0,N,1.5753266886559456,0.73176771206657976,0.13153341044116409
0.46784633963173178,0.80000000000000004,Y,0.68267267343117566,0.2996371646090078,0.26306682088232819
0.16976514227451209,0.40000000000000002,N,0.95424854215089139,0.1203795862045879,0
0.062012398551472801,0,N,0.65187540996811488,0.1115188887283271,0.13153341044116409
0.32816961313439441,1.2,Y,0.76199895810875562,0.1724399131273994,0.26306682088232819
0.1240247971029457,0,Y,0.52402010407601496,0.1239497461885624,0.13153341044116409
0.30053688833985809,0,Y,1.5090659096899666,0.3186503716851728,0.39460023132349231
0.71190233537090841,0,N,2.0200205080543805,0.30775454801920449,0
0.25633445065236821,0,N,0.92718428031971678,0.3836380683838716,0.26306682088232819
0.61826361355818449,0,N,0.28137499800341681,0.25994302995525381,1.3153341044116411
0.41002597922233852,0.40000000000000002,N,0.33037064442192221,0.26486563966428761,0.13153341044116409
0.79375870145885263,0.80000000000000004,N,0.73120169464569518,0.41296660410531683,0.26306682088232819
0.61826361355818449,0,N,1.1511643782328844,0.48770696024255411,0.78920046264698474
1.3135342236375878,0,N,1.0214425715248414,0.35900518022987549,0
0.074290853464664394,0,N,0.82732648666676267,0.072010172373613401,0.26306682088232819
0.62259207897707713,0,N,1.8091059158528144,0.3926968636084231,0.39460023132349231
0.086569308377856105,0,N,2.1086792968116761,0.112771916654263,0.13153341044116409
0.168034996354926,0.40000000000000002,N,0.4325615640948049,0.136438779945359,0.26306682088232819
0.3685892945102443,0.40000000000000002,Y,1.5090659096899666,0.1369587865346224,0
0.52617520170924725,0.40000000000000002,N,0.94211628684726123,0.3618825947747969,1.0522672835293128
1.0219643281282726,0,N,0.35836815666106819,0.46016980694522369,0.13153341044116409
0.31006199275736429,0.80000000000000004,N,0.64907565874420015,0.54659800481661469,0.13153341044116409
0.056741344674597599,0,N,0.15911919455914611,0.069999882987437895,0.26306682088232819
0.168034996354926,1.2,Y,1.0167763194849837,0.068040087643277694,0
0.1444888886249317,0,N,2.1539419415982954,0.29693084804397307,0
0.32816961313439441,0,N,1.6061239521190065,0.39236533330301931,0.26306682088232819
0.1240247971029457,0,N,1.9882899941833485,0.1239497461885624,0.39460023132349231
0.44958988949817819,0,Y,0.96078129500669163,0.1647939068893404,0.26306682088232819
0.90848163877907717,0,Y,0.83199273870662049,0.45162646862520439,0.52613364176465638
0.31936075192015762,0,N,1.9276287176651989,0.64795140615580471,0.39460023132349231
0.18541707166890381,0.80000000000000004,N,0.8035286012634888,0.28886545037570371,0.52613364176465638
0.3242070208669553,0.40000000000000002,N,0.46475870316982282,0.28446157931100829,0.13153341044116409
0.1515086921409585,0.40000000000000002,N,0.90525289573238565,0.12508060389171949,0.13153341044116409
0.168034996354926,0.40000000000000002,N,0.40316417624370171,0.23903685569097871,0.26306682088232819
0.1853860654696281,0,N,0.149320065275445,0.17315093189037231,0
0.41002597922233852,0.40000000000000002,N,1.325215579319575,0.53008988398737877,0.13153341044116409
0.30076013297464338,0.40000000000000002,N,0.74893345239715414,0.26566123781226131,0.13153341044116409
0.41077942986473892,0,N,1.2164919067908917,0.42472515241529091,0.26306682088232819
0.0228701725857831,0,Y,0.98877880724583778,0.051480950677057297,0.39460023132349231
0.96580590000005895,0,Y,1.3924096086935251,0.21762484598660251,0.26306682088232819
0.52018480400917488,0.40000000000000002,N,1.0382410788683289,0.66258267015597805,0
0.27905579348162779,0.80000000000000004,N,0.67707317098334618,0.93195384023395222,0
0.0020464091521986,0.40000000000000002,N,0.1777842027185767,0.019518296666310001,0
0.15472093438592471,0.40000000000000002,N,0.064860903354021393,0.1485627947337311,0.13153341044116409
0.1485817069293289,0.40000000000000002,Y,0.82499336064683404,0.066102369457812601,0.65766705220582056
0.83468688450282469,1.2,N,0.66354104006775905,0.59461657082832708,0.65766705220582056
0.15503099637868209,0.40000000000000002,N,0.98971205765380943,0.1275014090936302,0
0.27905579348162779,0,N,1.3760777265540238,0.2127413934002543,0.13153341044116409
0.82170148824614619,0,Y,1.0807039724310334,0.27313167097069802,0.39460023132349231
0.074290853464664394,0,Y,1.4096747412409989,0.12628671785542839,0.39460023132349231
0.37207439130883718,0,N,1.6065905773229918,0.2151091686702995,0.39460023132349231
0.24168712211451029,0,N,1.8455026817637039,0.26202544303216629,0
0.59221840616656585,0.40000000000000002,Y,0.45029332184626403,0.49936086580371358,0.39460023132349231
0.57606417634390716,0.40000000000000002,N,1.5179317885656964,0.41686986067960258,0
0.83716738044488359,0,Y,1.3121500736079734,0.29798137770687833,0.26306682088232819
0.34044806804758598,0,N,1.9126967111376545,0.2974841195412703,0.65766705220582056
0.31936075192015762,0,N,1.8277709240122451,0.24044226076290781,0.13153341044116409
0.3445408863519831,0,Y,0.51328772438434245,0.30076585934729277,0.13153341044116409
0.62632522536987578,0,Y,0.45449294868213591,0.39494187197572489,0
0.0053516699949920999,0,Y,0.2823082484113883,0.043370578256446198,0.13153341044116409
0.31936075192015762,0,N,1.8511021842115327,0.18693095733586079,0.65766705220582056
0.42395086331707171,0,Y,0.89125413961281286,0.27323967004431432,0.13153341044116409
0.062012398551472801,0,N,1.113834361914023,0.065451689956272999,0
0.33176013101052459,0,N,0.65047553435615757,0.1741673016252967,0.13153341044116409
0.16495298014691781,0,Y,2.0573505243732417,0.048743159243882998,0.52613364176465638
0.73036652703960947,0,N,0.95284866653893396,0.91537732496375901,0.13153341044116409
0.88228140039108005,0,Y,1.4479380079678317,0.73194171886129444,0
0.59221840616656585,0,N,0.66820729210761676,0.37443099818808429,0.13153341044116409
0.37728343278716081,0,N,0.42089593399516079,0.24517520082815261,0.13153341044116409
0.17313861675571221,0,N,1.4414052551120309,0.13994643770302789,0
0.41002597922233852,0,N,0.1362545595638435,0.26486563966428761,0.13153341044116409
0.4928094306686272,0,Y,1.8025731629970136,0.1396448905658518,0.39460023132349231
0.52988974438248038,0,N,1.5617945577403582,0.53933245664106766,0
0.047377472493325197,0,N,1.4628700144953759,0.14248299881809651,0.13153341044116409
0.53330662754266656,1.2,N,0.80912810371131783,0.3012962332509434,0
0.12871913567329221,0.40000000000000002,N,0.76619858494462767,0.076484824599125104,0
0.387267428953948,0,N,1.8427029305397893,0.25117929297326191,0.26306682088232819
0.31365251063349447,0.80000000000000004,N,0.41436318113935999,0.30670506254623758,0.13153341044116409
0.48096196192536828,0,Y,1.6630522270052697,0.3075245278928006,0
0.31936075192015762,0,N,0.69107192710291943,0.1401085854834436,0.13153341044116409
0.41002597922233852,0,N,1.6457870944577964,0.2118207907996694,0.52613364176465638
0.027781554551059798,0.80000000000000004,Y,0.75406632964099751,0.082825593414334098,0.26306682088232819
0.13937286574443519,0.40000000000000002,N,0.75546620525295483,0.1514356595939215,0.26306682088232819
0.32816961313439441,0.80000000000000004,N,1.088169975694806,0.34523843091360229,0.9207338730881488
0.35331254012708901,0.40000000000000002,N,1.0088436910172256,0.20507994806810789,0.13153341044116409
0.11991957631883821,0,N,0.8763221330852683,0.092731152093835104,0.26306682088232819
0.27905579348162779,0,N,0.7577993312728839,0.14881138652403739,0.52613364176465638
0.65142784430351208,0,N,2.0568838991692564,0.23415370144461281,0
0.1085216974650775,0.40000000000000002,Y,0.456359449498079,0.22339638211545779,0.26306682088232819
0.1240247971029457,0,N,2.14787581394648,0.31041223516711358,0.13153341044116409
0.57314339237213274,0.40000000000000002,Y,1.1912941457756605,0.2418537072194798,0.13153341044116409
0.43408678986031002,0,N,1.1343658708893971,0.57337215360904481,0.13153341044116409
0.29154198992996688,0,N,1.3653453468623509,0.096627099338552902,0.52613364176465638
0.1240247971029457,0,Y,1.1828948921039164,0.074226390932616904,0.26306682088232819
0.7728977305861372,0,N,1.5207315397896108,1.017420413757183,0.65766705220582056
0.58515519397155302,0.40000000000000002,Y,1.1259666172176532,0.2466693620448355,0.26306682088232819
0.15472093438592471,0,N,1.0667052163114608,0.24784370280042239,0.13153341044116409
0.61826361355818449,0,Y,1.2132255303629913,0.4458727583102956,0.26306682088232819
0.47756988372460268,0.40000000000000002,N,0.2743756199436303,0.30548462826337519,0.26306682088232819
0.20154029529228679,0,N,1.5225980406055539,0.1994226015675031,0.13153341044116409
0.30698617778921122,0.80000000000000004,Y,0.59214738385793686,0.5803815023247354,0
0.27905579348162779,0,N,1.4334726266442728,0.14881138652403739,0.26306682088232819
0.74724940254524796,0.80000000000000004,Y,0.8763221330852683,0.50560989507434517,0.26306682088232819
0.54843145154937079,0,N,1.7783086523897538,0.46425124707397741,0
0.38225682715098902,0,N,1.2136921555669768,0.3819870549214599,0.26306682088232819
0.25879014163500652,0,N,0.29444050371501818,0.1545527903146737,0.13153341044116409
0.2954270666992167,0,N,0.61967827089309713,0.1667117854659782,0.39460023132349231
0.049721541158570901,0.40000000000000002,N,1.4311395006243439,0.13834815583249929,0
0.67506697063133358,0,Y,1.9322949697050564,0.1302913354387229,0.78920046264698474
0.48933983696967231,0,Y,1.4913341519385075,0.2082556280103994,0.39460023132349231
0.58911778623899214,0,N,1.2790196841249839,0.22913368373133661,0.26306682088232819
0.15503099637868209,0.40000000000000002,Y,0.64954228394818614,0.1115188887283271,0.39460023132349231
0.090190832453262093,0,N,1.3933428591014969,0.1454103107250686,0.52613364176465638
0.093018597827209296,0,N,0.046662520398576497,0.099088031268091806,0.52613364176465638
1.2247448713915889,0,Y,0.39149854614405749,0.81950144570080286,0.13153341044116409
0.40399837408313538,0,Y,0.4096969290995025,0.3484405885293288,0.26306682088232819
0.37033184290954069,0,N,0.2799751223914595,0.27547378900225977,0.65766705220582056
0.1240247971029457,0,N,1.0116434422411404,0.1032316752831688,0.13153341044116409
0.077515498189341003,0,N,0.076526533453665599,0.086657248392852201,0.26306682088232819
0.71190233537090841,0,Y,0.62947740017679832,0.59532691832633977,0.13153341044116409
0.3117983399168055,0,N,1.4432717559279735,0.18288845057480579,0.13153341044116409
0.24015541587028891,0.40000000000000002,N,0.82639323625879146,0.29613032728629041,0.26306682088232819
0.017989796819782199,0,N,1.8501689338035616,0.038927773824052103,0
0.199233434066172,0.40000000000000002,N,0.50955472275245617,0.27656056697302239,0.39460023132349231
0.50775751933945978,0.40000000000000002,N,1.6289885871143086,0.18746588092424249,0.26306682088232819
0.92771788480974438,0,Y,1.5967914480392906,1.1525098019623019,0
0.26943146922643929,0,Y,1.7484446393346649,0.1717125602503918,0.65766705220582056
0.20245807879084851,0.40000000000000002,N,0.51562085040427119,0.22427946846326019,0
0.1444888886249317,0,Y,1.4208737461366574,0.1620071876990582,0
0.4371471017288252,0,N,2.0088215031587224,0.2811755135752414,0.26306682088232819
0.35058089397089659,0,N,2.075082282124701,0.36680244483899382,0
0.32356829316187502,0.40000000000000002,Y,0.71346993689423599,0.12148769548408959,0.65766705220582056
0.13022603695809301,0,N,0.97757980235017961,0.1935623838788896,0
0.48902977497691491,0,N,1.3695449736982228,0.35705269421528329,0.39460023132349231
0.2427661378493059,0,Y,0.22211359709722439,0.1878001708744832,0.26306682088232819
0.40308059058457357,0,Y,1.2986179426923865,0.34770473296282378,0
1.2829745136314219,0,Y,1.3947427347134542,0.3714958548565751,0.52613364176465638
0.098860165770757999,0,N,2.0671496536569429,0.1245981135552386,0.13153341044116409
0.41028643129625469,0,N,1.3238157037076177,0.3029338214141486,0.52613364176465638
0.29225203189338128,0,Y,1.5762599390639171,0.221810928864171,0.39460023132349231
0.081657926412579407,0,N,2.0676162788609278,0.16902392032931229,0.13153341044116409
0.094593712750416697,0,Y,1.6126567049748068,0.12049295539788681,0.13153341044116409
0.50775751933945978,0,N,1.4418718803160169,0.32363861619032702,0.52613364176465638
0.51494165571164785,0,N,1.4428051307239882,0.32795895205996001,0.39460023132349231
0.50775751933945978,0.80000000000000004,Y,0.71346993689423599,0.25883917202050077,0
0.66278851571814201,0.40000000000000002,Y,0.45262644786619283,0.55594604065406983,0.65766705220582056
0.4709221545998849,0.40000000000000002,Y,0.35463515502918208,0.24111777706797929,0
0.11597868839089211,0,N,1.5827926919197179,0.12591647793731259,0
0.43408678986031002,0,N,2.037285640601854,0.2482580224509327,0.52613364176465638
0.27905579348162779,0,N,1.9178295883814975,0.14881138652403739,0.26306682088232819
0.21704339493015501,0,Y,1.2146254059749486,0.19853474177998279,0
0.48933983696967231,0.40000000000000002,Y,0.28884100126718909,0.27779368070513533,0.26306682088232819
0.21396757996200191,0.40000000000000002,Y,0.29164075249110361,0.14696167863337009,0.26306682088232819
0.51160228804965113,0.40000000000000002,N,0.4199626835871893,0.2715658335732517,0.78920046264698474
0.1240247971029457,0.40000000000000002,N,0.38449916808427098,0.18610388431974759,0.78920046264698474
0.1240247971029457,0,Y,1.3564794679866214,0.082513604377775204,0.78920046264698474
0.33646067082072628,0.40000000000000002,Y,0.56741624804669122,0.25219469310324349,0
0.3445408863519831,0,N,1.5081326592819952,0.22548476199201761,0.13153341044116409
0.43408678986031002,1.2,N,0.34530265094946672,0.3192913551372854,0.78920046264698474
0.74414878261767436,0,Y,0.93138390715558883,0.37256637329829878,0.13153341044116409
0.14455710226333829,0,N,1.7643098962701809,0.38356430382323159,0
0.3445408863519831,0,N,0.1180561766083988,0.2577480681199939,0.13153341044116409
0.071314258334193706,0.40000000000000002,N,0.5394187358075454,0.15347294874850109,0.13153341044116409
0.71190233537090841,0,Y,1.1726291376162297,0.35705269421528329,0
0.77515498189341081,0,Y,0.89312064042875594,0.43057694199940261,0.13153341044116409
0.13952789674081389,0.80000000000000004,N,0.97384680071829322,0.1021957642793996,0.26306682088232819
0.27905579348162779,0.80000000000000004,N,0.69340505312284806,0.18610388431974759,0.13153341044116409
0.804576764386157,0.80000000000000004,Y,0.46195895194590819,0.57392244170651829,0.39460023132349231
0.10781165550166311,0,Y,1.6336548391541661,0.10399281516317919,0.39460023132349231
0.3445408863519831,0,Y,0.53475248376768769,0.30076585934729277,0.39460023132349231
0.16495298014691781,0,N,1.2365567905622794,0.058563541858418597,0.65766705220582056
0.7241807902841001,0,N,1.141831874153169,0.1813006106036601,0.26306682088232819
0.57981592645627122,0,N,1.64205409282591,0.32615794817141391,0.9207338730881488
0.71058457190168967,0,N,0.97571330153423641,0.32398439222988878,0.52613364176465638
0.43331163487841662,0,N,0.93884991041936083,0.18579308864311811,0.65766705220582056
0.16495298014691781,0,N,1.7913741581013551,0.2353299814100851,0.26306682088232819
0.89917977899635648,0,Y,1.2925518150405717,0.55902886227685,0.52613364176465638
0.37728343278716081,0,N,0.12505555466818519,0.35040396395327728,0.13153341044116409
0.1444888886249317,0.40000000000000002,N,1.0704382179433469,0.093452761926182099,0
0.58911778623899214,0.80000000000000004,N,0.5632166212108195,0.19853474177998279,0.52613364176465638
1.0342427830414644,0,Y,0.58468138059416475,0.56907299987815985,0.39460023132349231
0.30858919829176679,0.80000000000000004,N,0.83012623789067741,0.2719387585512088,0.13153341044116409
0.15503099637868209,0,N,0.65327528558007231,0.14881138652403739,0.26306682088232819
0.61826361355818449,0.40000000000000002,N,0.73120169464569518,0.62436531841493426,0.39460023132349231
0.0076027200624104998,0,N,1.5949249472233475,0.030599165706340501,0.78920046264698474
0.52617520170924725,0,N,0.94538266327516163,0.26769986949676161,0
0.077515498189341003,0,N,2.0013554998949501,0.2369572768438987,0.13153341044116409
0.32816961313439441,0,N,1.4470047575598599,0.43163768980670381,0.26306682088232819
0.98021758142342119,0,Y,1.7139143742397178,1.2158840014513714,0
0.52617520170924725,0,N,1.1632966335365145,0.53575834365232677,0.26306682088232819
0.34863370465638038,0.40000000000000002,N,0.94258291205124722,0.36492886974973732,0.26306682088232819
0.27905579348162779,0,N,0.30423963299871931,0.14881138652403739,0
0.43408678986031002,0,N,0.57768200253437829,0.3192913551372854,0.65766705220582056
0.16782105357992341,0,N,1.0615723390676173,0.28098039922677431,0
0.25479654316829159,0,Y,0.96404767143459202,0.22880625560069029,0.39460023132349231
0.25566471674801228,0,N,1.1306328692575107,0.19666511969549269,0.13153341044116409
0.52617520170924725,0,N,1.7769087767777962,0.95699306744393042,0
0.49394425756211918,0.40000000000000002,N,0.64907565874420015,0.28025498555965211,0
0.48840965099140021,0,N,0.37936629084042761,0.69377911250701463,0
1.0072301822324428,0,Y,1.5062661584660522,0.31182435288864591,0.26306682088232819
0.43408678986031002,0.80000000000000004,Y,1.0783708464111048,0.37256637329829878,0.26306682088232819
0.85149534513020142,0,Y,1.3966092355293973,0.3534489709832927,0.39460023132349231
0.1472515409803998,0,N,1.897298079406124,0.092858021171336097,0
0.76111847548128475,0,N,1.8679006915550209,0.42307369144290569,0.26306682088232819
0.2443009447134549,0,Y,0.11478980018049841,0.13209092221235269,0
0.27270572386995701,0,N,1.3079504467721017,0.20837712696821789,0.13153341044116409
0.2821564134092015,0,N,0.30703938422263388,0.30096477753053508,0
0.2041448160314486,0,N,0.59354725946989406,0.1881922641963073,0
0.65618419527241001,0.40000000000000002,N,1.1572305058846992,0.56965080983900651,0.26306682088232819
0.063748745710914101,0,N,2.0092881283627078,0.075618669045321898,0.13153341044116409
0.58911778623899214,0,N,1.4628700144953759,0.4968747241456648,0.26306682088232819
0.22521662905923909,0.40000000000000002,Y,1.3116834484039881,0.24617762316890129,0
0.27905579348162779,0.40000000000000002,Y,1.2696871800452691,0.14881138652403739,1.4468675148528052
0.32816961313439441,0,N,1.7447116377027785,0.13256334357442881,0.26306682088232819
0.84960086635445387,0,Y,0.4596258259259795,0.47037213932218291,0
0.37728343278716081,0,Y,0.84132524278633591,0.15073911032009321,0.13153341044116409
0.15503099637868209,0,N,1.9257622168492561,0.22339638211545779,0.13153341044116409
0.52988974438248038,0,N,1.6896498636324584,0.89912652236931356,0
0.0955642067877472,0,Y,1.3340814581953044,0.30410480584493388,0
0.2276010057835432,0,N,1.8772331956347359,0.31067947320631761,0.13153341044116409
0.99870037681168755,0,N,1.9752244884717469,0.70734008182045116,0
0.18649608740369941,0,N,1.8133055426886864,0.1159077682089087,0.26306682088232819
0.35656509043111378,0,N,0.65934141323188733,0.1861009009199239,0.65766705220582056
0.31936075192015762,0,N,1.8525020598234907,0.35080933340431669,0.26306682088232819
0.093018597827209296,0,Y,0.36676741033281191,0.1189773882874692,0.26306682088232819
0.85670128598859752,0,N,0.2799751223914595,0.42671508009767001,0.13153341044116409
0.20154029529228679,0,N,1.5505955528447,0.22339638211545779,0
0.20895697815904291,0.80000000000000004,N,0.3471691517654098,0.28825549428175712,0.26306682088232819
0.46509298913604641,0,Y,1.8021065377930281,0.47698536712628747,0
0.55811158696325569,0,N,0.48155721051331041,0.4045313394439094,0.13153341044116409
0.43408678986031002,0.40000000000000002,N,0.73120169464569518,0.37256637329829878,0
0.15503099637868209,0,N,0.14792018966348769,0.14881138652403739,0.13153341044116409
0.50754667718438473,0,N,1.4792018966348781,0.28752620219486408,0
0.27905579348162779,0,N,0.36210115829295419,0.23271950656438539,0.9207338730881488
0.6977480054015347,0,N,2.013021129994593,0.2574367503483953,0.65766705220582056
0.52617520170924725,0,N,1.4120078672609275,0.53575834365232677,0.52613364176465638
0.17554469781950929,0.40000000000000002,Y,0.45822595031402208,0.2480690986570997,0
0.021642327094463999,0.40000000000000002,Y,1.1096347350781512,0.041856502845940398,0
0.34316111048421288,0.80000000000000004,Y,0.57441562610647789,0.1996535167138542,0.26306682088232819
0.41102437883901721,0,N,0.96358104623060636,0.3793909003949138,0.13153341044116409
0.31936075192015762,0.40000000000000002,Y,0.77599771422832886,0.28057570104069529,0.52613364176465638
0.74414878261767436,0,N,2.0125545047906082,0.54806046741017134,0
0.71190233537090841,0.40000000000000002,Y,1.5291307934613547,0.59532691832633977,0.13153341044116409
0.43408678986031002,0,Y,0.47549108286149538,0.65774426690696708,0.39460023132349231
0.65971270074998878,0.80000000000000004,Y,0.85019112166206545,0.41502015278893528,0
0.093018597827209296,0,N,1.7797085280017111,0.19853474177998279,0.13153341044116409
0.037207439130883702,0,Y,0.75873258168085522,0.1363805290638021,0.52613364176465638
0.11481285529812441,0,Y,1.2379566661742369,0.087332839282919197,0.26306682088232819
0.71190233537090841,0,N,1.8898320761423519,0.89316964252641362,0
0.15935636117764729,0.40000000000000002,N,0.66680741649565944,0.15227958881903839,0.13153341044116409
0.15503099637868209,0.40000000000000002,Y,1.3499467151308209,0.22339638211545779,0.39460023132349231
0.1853860654696281,0.40000000000000002,N,0.78906321993992989,0.1483638765504888,0.39460023132349231
1.0342427830414644,0,N,1.5379966723370844,0.73176771206657976,0.13153341044116409
0.25901338626979181,0,Y,1.3522798411507495,0.27869668124676061,0.13153341044116409
1.0342427830414644,0,Y,1.7839081548375826,0.56907299987815985,0.13153341044116409
0.25633445065236821,0.80000000000000004,N,0.85345749808996574,0.23003944391779879,0.52613364176465638
0.093018597827209296,0,N,1.7722425247379388,0.061795533472381599,0
0.062012398551472801,0.40000000000000002,N,0.3733001631886127,0.1717605929875527,0.26306682088232819
1.0502729880670201,0,Y,1.2258244108706069,0.43314184541279599,0.39460023132349231
0.18603719565441859,0,N,0.46242557714989402,0.074226390932616904,0
0.0146225235784373,0,N,1.0153764438730264,0.060618805996935698,0.13153341044116409
0.85670128598859752,0,N,1.6523198473135967,0.4741676951628348,0.26306682088232819
0.81505065850150071,0,Y,1.050839959375945,0.37652631446923401,0.39460023132349231
0.43331163487841662,0,N,1.8375700532959465,0.44640551893380509,0.52613364176465638
0.4709221545998849,1.2,Y,0.84645812003017928,0.31737347656064763,0.26306682088232819
0.1240247971029457,0,Y,0.7214025653619941,0.10619135707822749,0.26306682088232819
0.20988406351738739,0.40000000000000002,N,0.83572574033850644,0.2314247110409183,0
1.269083736355892,0,Y,1.5039330324461233,0.89316964252641362,0.13153341044116409
0.48933983696967231,0,N,1.2505555466818523,0.31256274434500098,0
0.039191835884530797,0,N,1.4829348982667641,0.047887221834475899,0.13153341044116409
0.82829340621216785,0,N,0.75173320362106888,0.6886525874200341,0.13153341044116409
0.15503099637868209,0.40000000000000002,N,0.50582172112057022,0.22339638211545779,0.39460023132349231
0.1111262182042393,0.80000000000000004,Y,0.31917163952626387,0.1217476987787213,0.52613364176465638
0.49919980833935651,0,N,1.4652031405153048,0.36404235249213779,0
1.3947425601606691,0.40000000000000002,N,1.1245667416056959,0.52562440571632496,0.13153341044116409
0.1976366148034715,0,N,1.7190472514835613,0.1715155066920393,0.39460023132349231
0.15472093438592471,0,N,0.77646433943231441,0.17834704477823979,0.26306682088232819
0.85670128598859752,0.40000000000000002,Y,0.60941251640541028,0.2665624483139924,0
0.18603719565441859,0.40000000000000002,Y,0.76153233290476985,0.0369338931369066,0.26306682088232819
0.21323273303916701,0,N,1.1105679854861228,0.23464678285046769,0
0.1444888886249317,0,N,2.1614079448620682,0.080824328812625107,1.0522672835293128
0.53385233664991949,0,Y,1.7610435198422807,0.38785846035941213,0.39460023132349231
0.21704339493015501,0.40000000000000002,Y,0.19364945965409269,0.094352480728001398,0.13153341044116409
0.85670128598859752,0,Y,1.2407564173981511,0.60974665927901572,0
0.27905579348162779,0.80000000000000004,Y,0.8287263622787201,0.1239497461885624,0.26306682088232819
0.3590207814137521,0,N,1.1651631343524571,0.42609803842914229,0.13153341044116409
0.035099017580133597,0.80000000000000004,Y,0.69947118077466319,0.043812270600338599,0.26306682088232819
0.83765107715358511,0,N,0.71766956373010804,0.37277416709601652,0.26306682088232819
0.056741344674597599,0,N,2.0951471658960887,0.174083990185221,0.13153341044116409
0.36098657444783377,0,N,2.095613791100075,0.37681473464718612,0
0.1894695819142426,0,N,1.4087414908330269,0.26481715941715311,0
0.40308059058457357,0,N,1.8618345639032059,0.474273158346601,0.26306682088232819
0.17329364775209091,0,Y,0.81612748177110461,0.24536166331713111,0
0.17467652423978869,0.40000000000000002,Y,1.1152342375259805,0.19754820604329509,0.26306682088232819
0.1093898710447981,0,Y,0.45449294868213591,0.22478866022816291,0
0.18603719565441859,0.40000000000000002,Y,1.2178917824028488,0.1736730268595123,0.52613364176465638
0.143825355960431,0.40000000000000002,N,0.34996890298932432,0.28001139096405059,0
0.093018597827209296,0.40000000000000002,N,0.025197761015231301,0.19853474177998279,0
0.1240247971029457,0,Y,0.30937251024256268,0.14881138652403739,0.13153341044116409
0.43592235685743358,0,N,1.9999556242829928,0.37403815901630427,0.13153341044116409
0.14572913659596121,0,N,1.1278331180335961,0.42477587021229313,0
0.51134803721559008,0,N,1.4442050063359455,0.2605665605183981,0.13153341044116409
0.43408678986031002,0,N,1.3121500736079734,0.44715136888971918,0.39460023132349231
0.093018597827209296,0.40000000000000002,Y,0.6467425327242714,0.084881379647820401,0.13153341044116409
0.43408678986031002,0,N,0.88472138675701217,0.2482580224509327,0.13153341044116409
0.3445408863519831,0,N,2.0097547535666931,0.2577480681199939,0
0.077515498189341003,0.40000000000000002,Y,0.27950849718747361,0.074226390932616904,0.13153341044116409
0.1444888886249317,0,N,0.88798776318491257,0.2107169328649163,0.13153341044116409
1.0542107753750387,0.40000000000000002,N,0.74333394994932511,0.325950751053661,0.26306682088232819
0.4960991884117828,0.40000000000000002,Y,0.97104704949437881,0.2814069508165617,0
0.56912498894599728,0,N,1.900564455834024,0.28836289667540871,0
0.18603719565441859,0,Y,0.87072263063743904,0.1107254535452256,0.39460023132349231
0.1444888886249317,0.40000000000000002,N,1.4465381323558739,0.1421637004519696,0.26306682088232819
0.1444888886249317,0,N,2.1166119252794342,0.1620071876990582,0.26306682088232819
0.3445408863519831,0,N,1.917362963177512,0.4298192330291894,0.39460023132349231
0.44892015559382231,0,Y,1.2309572881144506,0.20954259210932941,0.26306682088232819
0.32816961313439441,0,N,1.6537197229255542,0.28763890012320281,0
0.74763698003619472,0,Y,0.1031241700808543,0.53478873870963828,0.13153341044116409
0.066973390435590599,0,N,0.86279000216968116,0.038922851214343003,0.26306682088232819
0.3445408863519831,0,N,1.9784908648996471,0.69454405622180027,0
0.1629499796737052,0.40000000000000002,N,0.54688473907131752,0.066292710366561897,0.78920046264698474
0.59662128646372037,0,N,0.98971205765380943,0.43099842180948972,0.26306682088232819
0.52617520170924725,0.40000000000000002,N,0.90805264695630039,0.37194485653003539,0
1.0983481000440494,0,Y,1.8305706752361592,0.55405904026560682,0
0.1485817069293289,0.40000000000000002,Y,0.84599149482619362,0.0613551836584098,0
0.67094004550773301,0.40000000000000002,N,0.96404767143459202,0.2107066401355247,0.26306682088232819
0.33323602609604969,0.40000000000000002,Y,0.42182918440313227,0.087259373062261697,0.13153341044116409
0.80616118116914715,0,Y,1.3826104794098244,0.28732638899167479,0
0.350425862974518,0.40000000000000002,Y,0.70087105638662039,0.30548462826337519,0
0.43408678986031002,0,N,0.084925787125409394,0.53239135319634334,0
0.48933983696967231,0,N,1.9733579876558041,0.41686986067960258,0
0.18603719565441859,0.80000000000000004,Y,0.440494192562563,0.1107254535452256,0.39460023132349231
0.071221239736366501,0,Y,1.4544707608236322,0.098004087527161707,0.13153341044116409
0.3193638525400852,0,N,1.7129811238317465,0.2715157124562142,0.26306682088232819
0.16495298014691781,0,Y,1.5631944333523158,0.1881922641963073,0
1.2663892976388309,0.40000000000000002,N,1.2057595270992187,0.40494886624923021,0
0.22944587464044949,0,N,1.2267576612785784,0.1453422892090892,0
0.37207439130883718,0,N,2.0438183934576548,0.27667140027647119,1.3153341044116411
0.43408678986031002,0,Y,1.8375700532959465,0.44715136888971918,0
0.6213394285263375,0,Y,0.23937872964469781,0.31348312319059918,0.26306682088232819
0.15503099637868209,0,Y,0.54175186182747415,0.089143390050900995,0.13153341044116409
0.64917059299623847,0,N,1.9304284688891131,0.36323161359005901,0
0.74414878261767436,0,N,1.4236734973605716,0.74549135125540111,0
0.35159169606728569,0,Y,0.61547864405722519,0.45980844264158333,0.13153341044116409
0.078067408536449098,0,Y,1.917362963177512,0.15397967920854921,0
0.3445408863519831,0,N,0.62621102374889781,0.60189039793838472,0.39460023132349231
0.76438032764509234,0.40000000000000002,Y,0.56554974723074813,0.25474691706738639,0.13153341044116409
0.52617520170924725,0,N,1.8553018110474049,0.58237717305177505,0.13153341044116409
0.16495298014691781,0,Y,1.0172429446889697,0.2045879854371869,0.39460023132349231
0.15503099637868209,0.80000000000000004,Y,0.62621102374889781,0.14881138652403739,0.13153341044116409
1.2092417717537207,0,N,1.1548973798647706,0.66261914221882223,0.52613364176465638
0.1629499796737052,0.80000000000000004,Y,0.36956716155672648,0.186264987910225,0
0.48933983696967231,0,N,0.95658166817082002,0.27779368070513533,0
0.58142824881860955,0,N,0.47829083408541001,0.32701977779547281,0.26306682088232819
0.093018597827209296,0,N,0.27717537116754498,0.078151948420584497,0.26306682088232819
0.43098616993273631,0.40000000000000002,Y,1.65418634812954,0.24660059467890019,0.26306682088232819
0.73242223805159079,0,N,1.5258644170334543,0.52433192232772108,0.65766705220582056
0.3565712916709689,0.40000000000000002,Y,0.91271889899615799,0.18610388431974759,0.13153341044116409
0.58911778623899214,0,Y,1.7311795067871916,0.4968747241456648,0.13153341044116409
0.062012398551472801,0,N,1.5328637950932409,0.039885072242467998,0.26306682088232819
0.23760670628982339,0,N,0.5202871024441289,0.21502294841539579,0.39460023132349231
0.89917977899635648,0,Y,0.2561772369881854,0.2482580224509327,0.26306682088232819
1.4988117674097508,0,Y,1.6369212155820667,0.4226249135244321,0.52613364176465638
0.066973390435590599,0.40000000000000002,N,0.38496579328825681,0.0782042325024941,0.26306682088232819
0.58911778623899214,0,N,1.568327310596159,0.29798137770687833,0.65766705220582056
0.1557658433015171,0,N,0.88378813634904041,0.28043988176372331,0.26306682088232819
0.21704339493015501,0.80000000000000004,Y,0.74426720035729677,0.1189773882874692,0
0.32816961313439441,0,N,1.1758955140441301,0.43163768980670381,0
0.7728977305861372,0,N,1.6457870944577964,0.55214996271844885,0
0.76585312211068979,1.2,Y,0.47549108286149538,0.76637515002099865,0.13153341044116409
0.040308059058457302,0,N,0.25011110933637049,0.056823250156283998,0
0.27905579348162779,0,N,0.33223714523786529,0.18610388431974759,0.13153341044116409
0.031006199275736401,0,Y,0.34016977370562329,0.054889559560580801,0.26306682088232819
0.38204598499591391,0,N,2.0494178959054841,0.33083852956975351,0.13153341044116409
0.093018597827209296,0,Y,0.43676119093067678,0.084881379647820401,0.13153341044116409
0.2956255063745814,0,N,1.1222336155857668,0.26154414605561488,0.13153341044116409
0.32816961313439441,0,N,0.83105948829864906,0.191639731862534,0.13153341044116409
0.73800025330129571,0,N,0.72653544260583747,0.46210006663112968,0.13153341044116409
0.1087046340408043,0,N,1.8151720435046288,0.060745525904445603,0.9207338730881488
0.3445408863519831,0.80000000000000004,N,0.70507068322249222,0.30076585934729277,0.13153341044116409
0.13952789674081389,0,N,2.0340192641739532,0.1105109470979046,0.26306682088232819
0.21704339493015501,0.40000000000000002,N,0.3271042679940217,0.17012136395444441,0.52613364176465638
0.20991817033659069,0,N,0.93465028358348901,0.16522433689889859,0
0.40491615758169708,1.2,Y,0.68360592383914698,0.26179273784592111,0.39460023132349231
0.046211639400557503,0,Y,1.5057995332620666,0.1234724022167773,0.13153341044116409
0.44074072022488298,0,Y,1.5468625512128138,0.32386453414197341,0.52613364176465638
0.024711940822761898,0,N,0.32243801595416421,0.088994220059718104,0
1.3565832307120202,0,N,1.7489112645386502,0.66720693988264623,0.13153341044116409
0.54459288407903461,0,Y,1.4437383811319593,0.2304073717010513,0
0.26007379828502197,0,N,0.87118925584142493,0.3497359061477649,0
0.85670128598859752,0,Y,0.94818241449907636,0.71143084507365395,0.13153341044116409
0.31936075192015762,0,N,0.98971205765380943,0.28057570104069529,1.183800693970477
0.27905579348162779,0,N,1.4689361421471909,0.1239497461885624,0.52613364176465638
0.71314258334193781,0,N,1.7022487441400738,1.193001324803924,0
0.68734542554452505,0.80000000000000004,N,1.2132255303629913,0.34523843091360229,0.52613364176465638
0.60094975188261324,0,Y,1.6373878407860525,0.21680731984992491,0.78920046264698474
0.83419078531441282,0,N,0.81379435575117554,0.17307634689478091,0.26306682088232819
0.88367667935848815,0,Y,1.2962848166724577,0.48858751070050638,0.52613364176465638
0.67453366400379078,0,N,1.8651009403311061,1.1310858586586312,0
0.27905579348162779,0.40000000000000002,N,0.65280866037608654,0.2482580224509327,0.13153341044116409
0.58911778623899214,0,N,1.4656697657192903,0.4258413914593121,0.65766705220582056
0.15503099637868209,0,Y,1.3480802143148776,0.17864538476060551,0.52613364176465638
0.068548505358798098,0,N,1.9444272250086865,0.23911889918612919,0.52613364176465638
0.1567673435381233,0,N,1.4815350226548067,0.18031608866185339,0
0.81168028464022823,0,N,1.4670696413312478,0.91840629621972203,0.13153341044116409
0.55380172526392835,0,N,1.8133055426886864,0.31225194866837158,0.13153341044116409
0.79140223031389656,0.40000000000000002,Y,0.85672387451786614,0.47066339372996741,0.39460023132349231
0.43408678986031002,0,N,2.0223536340743093,0.2482580224509327,0.39460023132349231
0.59367569753252536,0,Y,1.3242823289116037,0.75097334843137042,0
0.54846245774864655,0,Y,0.82079373381096199,0.27842220846298421,0.13153341044116409
0.52710538768751936,0,N,0.7605990824967982,0.33527387550258858,0.39460023132349231
0.056741344674597599,0,N,0.66400766527174471,0.084071610350684403,0.26306682088232819
0.34106819203310068,0.40000000000000002,N,1.116167487933952,0.33113023148751158,0.13153341044116409
0.27905579348162779,0.40000000000000002,N,0.78439696790007252,0.1239497461885624,0.39460023132349231
0.1240247971029457,0,N,0.13345480833992901,0.14881138652403739,0.26306682088232819
1.030500334788883,0,N,1.4110746168529562,0.51032933525538782,0
0.26045207391618602,0,N,0.093791666001138793,0.28008097876493732,0.13153341044116409
0.15472093438592471,0,N,0.47875745928939561,0.17834704477823979,0
0.15503099637868209,0.40000000000000002,Y,0.071860281413807903,0.14881138652403739,0.26306682088232819
0.2480495942058914,0,N,1.6807839847567287,0.22339638211545779,0.52613364176465638
0.1751850259079108,0.40000000000000002,Y,0.7498667028051258,0.1649714937638436,0.26306682088232819
0.16495298014691781,0,N,0.23984535484868369,0.3138928185713829,0.39460023132349231
0.80061727273864547,0.40000000000000002,N,1.0102435666291831,0.41640370445715608,0.52613364176465638
0.2480495942058914,0,Y,1.6126567049748068,0.22339638211545779,0.13153341044116409
0.1880898060464723,0,N,1.9103635851177252,0.17531889395722819,0
0.50775751933945978,0,Y,0.52588660489195826,0.43163768980670381,0.26306682088232819
0.1240247971029457,0.40000000000000002,N,0.51515422520028542,0.1239497461885624,0.13153341044116409
0.81168028464022823,0,N,1.3690783484942368,0.57880455176294598,0.26306682088232819
0.093018597827209296,0,Y,0.77039821178049939,0.065939177487458603,0.39460023132349231
0.92061746517560061,0,N,0.2734423695356587,0.7626807314343691,0
0.91942062588355722,0,N,0.26784286708782951,0.28542126444928301,0.52613364176465638
0.86817357972062004,0,Y,1.6051907017110345,0.50265647841891614,0.65766705220582056
0.1085216974650775,0,N,1.1866278937358026,0.066767891373474803,1.183800693970477
0.16495298014691781,0.40000000000000002,N,0.40036442501978697,0.21390372597155091,0
0.85670128598859752,0.40000000000000002,Y,0.89172076481679852,0.53348350128678845,0.39460023132349231
0.41002597922233852,0,N,0.97524667633025064,0.25223593860580562,0.52613364176465638
0.34316111048421288,0,N,1.6583859749654115,0.1996535167138542,1.0522672835293128
0.60462088587686036,0.40000000000000002,N,1.6602524757813548,0.29367842014121809,0.65766705220582056
0.27905579348162779,1.2,N,0.78719671912398692,0.37256637329829878,0.13153341044116409
0.67475690863857618,0,Y,0.54128523662348849,0.24217046969575659,0.52613364176465638
0.55766509769368511,0,Y,0.92438452909580238,0.40422449677204642,0.26306682088232819
0.1240247971029457,0,N,0.79232959636783029,0.092872639830472004,0.39460023132349231
1.0542107753750387,0,N,1.2491556710698954,0.86979970210276714,0
0.27905579348162779,0,N,0.90898589736427182,0.16538581341435399,0.13153341044116409
0.64856287149043401,0,Y,1.7479780141306789,0.71037800327588541,0
0.080430080921260305,0,N,1.6476535952737394,0.2140881746656485,0
0.1204900903855117,0,N,0.96731404786249242,0.090746967456116504,0.13153341044116409
0.1444888886249317,0,N,2.0097547535666931,0.14035844521867491,0.26306682088232819
0.16743347608897671,0,N,1.202026525467333,0.18323519621931039,0
0.36091215956957201,0.40000000000000002,N,1.2449560442340235,0.1881922641963073,0.26306682088232819
0.20154029529228679,0,Y,0.57021599927060573,0.22339638211545779,0.39460023132349231
0.31522762555670197,0.40000000000000002,Y,1.0335748268284717,0.10374899681259089,0.39460023132349231
0.093018597827209296,0.40000000000000002,N,0.29117412728711778,0.084881379647820401,0.13153341044116409
0.062012398551472801,1.2,N,1.1021687318143789,0.18610388431974759,0
0.4147389215122505,0,N,2.0293530121340959,0.53575834365232677,0
0.35656509043111378,0.80000000000000004,N,0.69340505312284806,0.2327157773146058,0.13153341044116409
0.1485320970104877,0.80000000000000004,Y,1.4997334056102516,0.17239217873022081,0
0.36091215956957201,0,N,1.749844514946622,0.55420276555211156,0
0.43408678986031002,0,N,0.30563950861067668,0.37256637329829878,0
1.826265137340876,0.40000000000000002,Y,0.59774688630576622,0.59532691832633977,0.78920046264698474
0.7038407235592169,0,N,0.5062883463245561,0.58886286051341818,0.65766705220582056
0.2480495942058914,0,Y,2.0335526389699679,0.1338943874057533,0
0.79140223031389656,0,Y,1.6901164888364439,0.43926191722605001,0.13153341044116409
1.0342427830414644,0,N,1.7153142498516754,1.0246182387567331,0
0.1485817069293289,0,Y,0.34203627452156621,0.1076404689575732,0.39460023132349231
0.2027402352042578,0,N,0.60334638875359525,0.18706603076287689,0.39460023132349231
0.083313657453903706,0.40000000000000002,N,1.1334326204814251,0.045473875132124301,0.9207338730881488
0.67845594821217148,0,N,1.2510221718858383,0.34096172726639029,0.13153341044116409
0.093018597827209296,0,N,0.0111990048956583,0.1189773882874692,0.13153341044116409
0.043284654188927997,0.40000000000000002,N,0.67380679455544579,0.049281886667039802,0
0.056741344674597599,0,N,1.879566321654665,0.091413384391725805,2.2360679774997898
0.52988974438248038,0,Y,1.3863434810417106,1.0790235179409389,0.26306682088232819
0.25479654316829159,0,N,0.28464137443131721,0.2079731000470991,0.13153341044116409
0.31006199275736429,0,N,0.63321040180868426,0.2340513708306613,0.39460023132349231
0.4960991884117828,0,N,0.61967827089309713,0.2814069508165617,0.26306682088232819
0.3040436894779438,0,Y,1.8949649533861952,0.36598596289225449,0.26306682088232819
0.21842007017799769,0,N,2.0330860137659821,0.17106754920851719,0.13153341044116409
0.58911778623899214,0,N,0.86139012655772385,0.156662426914977,0
0.68981351900687371,0,N,1.7643098962701809,0.43312193121897302,0.13153341044116409
0.29225203189338128,0.80000000000000004,Y,0.605679514773524,0.1724399131273994,0
0.44512499680247208,0,Y,1.1749622636361583,0.17584561319609479,0.26306682088232819
0.50775751933945978,0,Y,1.2986179426923865,0.18478268570784109,0.13153341044116409
0.58911778623899214,0.40000000000000002,Y,0.51515422520028542,0.14881138652403739,0.13153341044116409
1.1570273321733806,0,N,1.9682251104119608,1.7857655772667382,0.13153341044116409
0.1506808266202963,0.40000000000000002,Y,1.1931606465916034,0.14532327003521339,0.26306682088232819
0.50103847595640771,0.40000000000000002,Y,0.40503067705964479,0.33643777435879269,0
0.15217222480545919,0,N,0.92531777950377359,0.12553661655476539,0.39460023132349231
0.48933983696967231,0.40000000000000002,Y,0.98037955357409401,0.34733180798486668,0
0.2480495942058914,0.40000000000000002,Y,0.11432317497651261,0.23111205073939911,0.39460023132349231
0.43408678986031002,0.80000000000000004,Y,0.70320418240654914,0.22339638211545779,0
0.14262851666838749,0,N,1.993422871427192,0.2084793829971737,0
0.28820882350782517,0,N,1.2804195597369414,0.11777485440354871,0.39460023132349231
0.284094300863935,0.40000000000000002,Y,1.3228824532996464,0.25229806790713322,0.65766705220582056
0.27905579348162779,0,N,0.67240691894348847,0.1239497461885624,0.39460023132349231
0.31006199275736429,0,N,1.1628300083325287,0.32781537594344651,0.13153341044116409
0.32703478624090238,0,N,1.1040352326303218,0.2149570898642886,0
0.2325464945680232,0,N,1.5529286788646288,0.23444600004233559,0
0.27905579348162779,0,N,1.7092481221998603,0.2586170579036296,0.65766705220582056
0.31936075192015762,0.80000000000000004,Y,0.53755223499160243,0.28057570104069529,0.13153341044116409
0.37759349477991822,0,N,1.4633366396993617,0.4676799939063106,0.52613364176465638
0.5136238922424291,0,Y,1.5977246984472624,0.52368154116616406,0.13153341044116409
0.1444888886249317,0.80000000000000004,N,0.5062883463245561,0.1559936232595088,0.65766705220582056
0.50760248834308108,0,N,1.9453604754166576,0.43151335661905288,0.26306682088232819
0.15503099637868209,0,Y,0.44936007143829249,0.14881138652403739,0.13153341044116409
0.82166428080701537,0,Y,1.2925518150405717,0.45543858233487761,0.52613364176465638
0.43408678986031002,0,Y,0.4418940681745202,0.13126198457134969,0.39460023132349231
0.34106819203310068,0.40000000000000002,Y,1.2160252815869059,0.22339638211545779,0.65766705220582056
0.48933983696967231,0.40000000000000002,Y,0.66260778965978762,0.31256274434500098,0
0.48933983696967231,0,Y,1.766176397086124,0.35726578354768801,0.26306682088232819
0.1271254170305193,0,N,1.303284194732244,0.253230380352026,0
0.27905579348162779,0,N,1.1208337399738098,0.092872639830472004,0.26306682088232819
0.074811757612496796,0,N,1.0214425715248414,0.063277313579796393,0.13153341044116409
0.32629683869813991,0,N,1.7815750288176539,0.42938522293984288,0.26306682088232819
0.32816961313439441,0,Y,1.5361301715211413,0.24649639944005899,0.13153341044116409
0.18454889808918321,0.80000000000000004,N,0.84085861758235025,0.1848252737403239,0.26306682088232819
0.33176013101052459,0,Y,0.3938316721639864,0.2905178809530316,0.26306682088232819
0.10232045760993019,0,N,1.869767192370964,0.17781667087458919,0.13153341044116409
0.4709221545998849,1.6000000000000001,N,0.54175186182747415,0.26794846128706779,0.13153341044116409
0.61903876854007789,0.40000000000000002,Y,1.1049684830382935,0.91944988947803741,0
0.093018597827209296,0,Y,0.14465381323558749,0.084881379647820401,0.26306682088232819
0.1444888886249317,0,N,0.43489469011473381,0.084071610350684403,0
1.0131554669140359,0,Y,0.78159721667615789,0.71727480323322856,0.39460023132349231
0.27905579348162779,0,N,0.76153233290476985,0.099088031268091806,0
0.22609720511867001,0,N,0.30657275901864822,0.2057943231558825,0.13153341044116409
0.43684014035599539,0.80000000000000004,Y,0.46989158041366619,0.3747740891678048,0.39460023132349231
0.52988974438248038,0,Y,1.6569860993534546,0.44938392156275719,0.39460023132349231
0.1240247971029457,0,N,1.3051506955481871,0.14881138652403739,0
0.13937286574443519,0,N,1.5188650389736678,0.20456367072862411,0.13153341044116409
0.35656509043111378,0,N,1.1618967579245569,0.31040723797240899,0
0.43408678986031002,0,N,2.0988801675279749,0.27933512880902323,0
0.46509298913604641,0.40000000000000002,Y,0.71720293852612205,0.39742801363377372,0.26306682088232819
0.4546501012199784,0,N,0.88472138675701217,0.25925020993120518,0
0.20806399961990171,0,N,0.17545107669864779,0.19133475381556059,0.26306682088232819
0.4216843101500154,0,N,1.9112968355256967,0.3885488936636019,0
0.1629499796737052,0,N,0.49928896826476948,0.096841158275900299,0.39460023132349231
0.3393256436338043,0,Y,0.26737624188384379,0.22234846292739829,0.13153341044116409
0.33176633225037971,0,N,0.89265401522477028,0.30055329210985721,0
1.0342427830414644,0,Y,1.8725669435948784,0.73176771206657976,0.13153341044116409
0.14200219144301771,0.40000000000000002,Y,0.92485115429978804,0.1185469582779111,0
0.2318767606636673,0,N,1.685450236796586,0.30076585934729277,0.13153341044116409
0.87800564551095595,0,N,1.7022487441400738,0.43696455019184299,0.39460023132349231
1.1831345519635508,0,Y,0.46289220235387962,0.41686986067960258,0.26306682088232819
0.56332062844157949,0.80000000000000004,N,0.26457649065992911,0.2745731751804934,0
0.89917977899635648,0,N,1.0256421983607134,0.44715136888971918,0.13153341044116409
0.34612840375490089,0,N,0.8716558810454107,0.18863977416985589,0.26306682088232819
0.068213638406620106,0,N,1.297218067080429,0.095110189698214595,0.13153341044116409
1.0342427830414644,0.40000000000000002,N,0.71207006128227868,0.51212981704896476,0.26306682088232819
0.58911778623899214,0,N,1.3410808362550912,0.4258413914593121,0
0.1240247971029457,0.40000000000000002,Y,0.4451604446024206,0.37256637329829878,0
0.4185836902224418,0.40000000000000002,N,0.31497201269039199,0.2769446051153226,0
0.80554105718363245,0,N,1.2654875532093968,0.50271719060532749,0.26306682088232819
0.60094975188261324,0.40000000000000002,N,0.88938763879686977,0.60770601379963463,0.39460023132349231
0.87445543569388418,0,Y,1.2491556710698954,0.48365826292686509,0.13153341044116409
0.68734542554452505,0,Y,1.8492356833955903,0.43163768980670381,0.26306682088232819
0.86735501605974064,0,N,1.9406942233768001,0.61706874288122116,0.39460023132349231
0.83765107715358511,0,N,1.8501689338035616,0.52202724596394634,0.13153341044116409
0.58911778623899214,0,N,1.7391121352549497,0.4258413914593121,0.13153341044116409
0.17237276363360149,0,N,1.2603546759655535,0.16271649100713259,0.13153341044116409
0.43408678986031002,0,N,0.93231715756356015,0.3192913551372854,0.13153341044116409
0.43718740978788367,0,N,0.84879124605010803,0.38799778513117689,0.26306682088232819
0.71033962292741137,0,Y,1.5543285544765864,0.35630087745972189,0.65766705220582056
0.061857367555094099,0,Y,0.1315883075239859,0.1011787232795149,0.13153341044116409
0.73645924519729167,0,Y,1.1716958872082579,0.30732933895933789,0.26306682088232819
0.098847763291047705,0,N,0.98317930479800875,0.062113787648570201,0
0.1234387799366343,0,N,1.4838681486747354,0.14824752395736621,0.13153341044116409
0.32629683869813991,0,N,0.78346371749210086,0.42938522293984288,0.13153341044116409
0.19391897151031079,0.40000000000000002,N,0.36583415992484042,0.45052014938559698,0.26306682088232819
0.084820558738704505,0.40000000000000002,N,1.1842947677158739,0.055365337247458499,0.13153341044116409
0.053231442916584298,0,N,1.5641276837602871,0.092767251231701306,0
0.32181954352272357,0.80000000000000004,Y,0.43582794052270529,0.18824529412817281,0.65766705220582056
0.1240247971029457,1.2,Y,0.94258291205124722,0.030718501699286801,0.13153341044116409
0.34416261072081922,0,N,1.5636610585563011,0.45087316016973111,0.26306682088232819
0.34106819203310068,0,N,1.5473291764167996,0.14881138652403739,0.52613364176465638
1.1831345519635508,0.40000000000000002,Y,1.115700862729966,0.83409832601800871,0.13153341044116409
0.47426772350173679,0,Y,2.0288863869301097,0.2582434616607121,0
1.0542107753750387,0,Y,0.96544754704654945,0.52173636448113969,0
0.1085216974650775,0,N,2.1278109301750923,0.055580142034761797,0
0.15472093438592471,0,N,1.556661680496515,0.24784370280042239,0.26306682088232819
0.1444888886249317,0,N,1.5631944333523158,0.14035844521867491,0.26306682088232819
0.4546501012199784,0,N,1.9504933526605013,0.46693727652021122,0.13153341044116409
0.51853217358777814,0,N,1.3518132159467635,0.26402282921410458,0.13153341044116409
0.4709221545998849,0,N,0.084925787125409394,0.48259415879476231,0
0.31006199275736429,0,N,1.9523598534764444,0.14881138652403739,0.65766705220582056
0.36408719437540749,0.80000000000000004,N,0.56414987161879071,0.32736271960520219,0
0.1800467979543463,0,Y,1.6831171107766574,0.16886975314342481,0.39460023132349231
0.12576114426238691,0,N,1.2113590295470482,0.15048209042528521,0.13153341044116409
0.44218250849120477,0.80000000000000004,N,0.85905700053779477,0.45494102582928719,0.52613364176465638
0.59340904421875407,0,N,1.4470047575598599,0.3000458903848488,0.26306682088232819
0.12576114426238691,0,N,0.16705182302690411,0.2091423690229858,0.13153341044116409
0.11892737794201461,0,N,2.1707404489417832,0.24008350693411309,0
0.45188434824458268,0.80000000000000004,N,0.77599771422832886,0.64496733506718751,0.13153341044116409
0.13425684286393871,0,N,0.73400144586960958,0.099025901966764196,0
0.16495298014691781,0.80000000000000004,Y,0.69853793036669154,0.1567671442487874,0.13153341044116409
0.27905579348162779,1.2,Y,1.3028175695282584,0.18610388431974759,0
0.2821564134092015,0.40000000000000002,N,1.4582037624555184,0.62739846643065056,0
0.43408678986031002,0,N,2.0512843967214267,0.65774426690696708,0
0.051625321794101099,0,N,0.79139634595985897,0.056432573949376098,0.39460023132349231
0.70818779269767518,0,Y,1.169829386392315,0.32293617470184699,0.26306682088232819
0.062012398551472801,0.40000000000000002,Y,0.034063639890960902,0.063571402217413295,0.13153341044116409
0.15503099637868209,0,N,0.23424585240085441,0.14881138652403739,0.39460023132349231
0.46509298913604641,0,Y,0.59541376028583715,0.23831338123374191,0.39460023132349231
0.13395918335089169,0,N,1.9486268518445584,0.26418937750926019,0
0.093018597827209296,0.80000000000000004,N,0.67380679455544579,0.19853474177998279,0
0.45388114747794012,0,Y,1.2412230426021371,0.23291939435257031,0.26306682088232819
0.50775751933945978,0,N,1.8021065377930281,0.32363861619032702,0
0.2318767606636673,0.40000000000000002,N,1.1110346106901088,0.2104285126869643,0.26306682088232819
0.31006199275736429,0,N,0.96824729827046419,0.092872639830472004,0.52613364176465638
0.096119217754782896,0,Y,2.1530086911903235,0.3594042845412852,0
0.074290853464664394,0,N,1.9313617192970849,0.12628671785542839,0.13153341044116409
0.226875460720491,0,Y,0.3233712663621357,0.206418375813996,0
0.61826361355818449,0.40000000000000002,N,1.2594214255575822,0.42175211990602129,0.26306682088232819
0.093018597827209296,0.40000000000000002,Y,1.0573727122317451,0.16538581341435399,0.13153341044116409
0.34106819203310068,0,N,0.35370190462121037,0.25536134826106849,0
0.73242223805159079,0.40000000000000002,Y,0.56228337080284785,0.4587456064544056,0.39460023132349231
0.58911778623899214,0,Y,1.3074838215681162,0.29798137770687833,0.26306682088232819
0.58911778623899214,0.40000000000000002,N,0.60101326273366662,0.22913368373133661,0
1.1675353331079277,0.80000000000000004,Y,1.2962848166724577,0.27422001522636791,0.39460023132349231
0.89917977899635648,0,N,1.2612879263735253,0.63894138951836998,0.39460023132349231
0.1240247971029457,0,N,1.303284194732244,0.41400251510908598,0
0.4928094306686272,0,N,1.164229883944486,0.15714536476143151,0
0.032172032368504098,0,N,1.363012220842422,0.060431150148027697,0.13153341044116409
0.32866571232280611,0.80000000000000004,N,1.1469647513970125,0.24683740203990301,0.52613364176465638
1.1553840036117664,0.40000000000000002,N,0.4507599470502498,0.40733364689827029,0.39460023132349231
0.68734542554452505,0,Y,1.1674962603723864,0.49335147812391728,0.13153341044116409
0.42588254953195009,0.40000000000000002,Y,0.94771578929509059,0.2966791982688477,0.26306682088232819
0.046509298913604599,0,Y,1.5790596902878311,0.1239497461885624,0
0.13952789674081389,0.80000000000000004,Y,0.56974937406662018,0.16372838564232139,0.52613364176465638
0.13952789674081389,0.40000000000000002,Y,0.87398900706533933,0.1075933312403595,0.65766705220582056
0.3030266861416997,0,N,0.16285219619103219,0.40139720334416229,0.13153341044116409
1.826265137340876,0.80000000000000004,N,0.70880368485437828,0.74424824313387894,0.39460023132349231
0.43592235685743358,0,N,0.56135012039487642,0.3205529603377143,0
0.2480495942058914,0,N,1.540796423560999,0.33527387550258858,0
0.81168028464022823,0,Y,1.4614701388834186,0.33748658856679919,0.26306682088232819
0.18541707166890381,0,N,0.41482980634334587,0.087137724934452099,0.52613364176465638
0.66663328442833325,0,Y,1.8156386687086148,0.16745763542189249,0
0.494759720603071,0,N,0.84272511839829334,0.42121570461772778,0
0.70046414845808924,0,Y,1.5076660340780097,0.31955814566651591,0.26306682088232819
0.79958166568283595,0,N,0.84505824441822197,0.57048936894444091,0.26306682088232819
0.15503099637868209,0.40000000000000002,Y,0.7605990824967982,0.089143390050900995,0.26306682088232819
0.065571910228327396,0,Y,1.8357035524800029,0.066017790072811902,0.65766705220582056
0.13425684286393871,0,N,2.0652831528409998,0.11322367797256019,0
0.68734542554452505,0,N,1.7283797555632767,0.69083546648600824,0.13153341044116409
0.3445408863519831,0,Y,0.32057151513822119,0.22548476199201761,0.26306682088232819
0.17053409601655031,0,Y,1.8291707996242024,0.25480061826421219,0.52613364176465638
0.15472093438592471,0.40000000000000002,N,0.6677406669036311,0.2974841195412703,0.13153341044116409
0.044103217849807398,0,N,1.974291238063776,0.1502036646367424,0.13153341044116409
0.2480495942058914,0,Y,1.5141987869338105,0.22339638211545779,0.13153341044116409
0.15472093438592471,0,N,0.68220604822718967,0.17834704477823979,0.13153341044116409
0.1240247971029457,0.40000000000000002,Y,0.62294464732099752,0.053688517376572098,0.26306682088232819
0.47109578931582902,0,N,0.89732026726462766,0.26804131960657901,1.0522672835293128
0.15217222480545919,0,N,2.1208115521153057,0.26669185328134348,0.13153341044116409
0.2954270666992167,0,Y,1.540796423560999,0.24502603083696969,0
0.96336261149713076,0,Y,0.97757980235017961,0.23883547620288181,0
0.51389674679605557,0,Y,1.2790196841249839,0.21810084742846689,0.26306682088232819
0.40616880803243688,0.40000000000000002,Y,0.4292951876669045,0.42028883687751328,0.52613364176465638
0.38757749094670541,0,N,0.84085861758235025,0.22339638211545779,0.78920046264698474
0.68734542554452505,0,N,0.7605990824967982,0.31382054571065471,0.26306682088232819
0.30695827220986299,0.80000000000000004,Y,0.66120791404783041,0.1803011716627351,0.39460023132349231
0.74414878261767436,0.40000000000000002,N,0.37283353798462687,0.20682195522514121,0.13153341044116409
0.16654049754983549,0.80000000000000004,N,0.92391790389181638,0.11844037631921089,0.26306682088232819
0.66278851571814201,0,N,1.0004444373454819,0.55594604065406983,0.26306682088232819
0.56332062844157949,0.80000000000000004,N,0.62527777334092616,0.47618976897831372,0.52613364176465638
0.25633445065236821,0,N,1.7755089011658389,0.23003944391779879,0
0.1271254170305193,0.80000000000000004,Y,0.58048175375829258,0.1185112320650228,0.39460023132349231
0.1506808266202963,0,N,1.8707004427789355,0.079104249644295799,0.13153341044116409
0.49378302532588531,0,Y,0.16471869700697539,0.280168839889744,0.39460023132349231
0.50775751933945978,0,N,1.6359879651740954,0.79472662230019642,0
0.4898979485566356,0,Y,0.94071641123530381,0.1135530453130919,0.39460023132349231
0.48531523230368168,0,N,0.77086483698448538,0.49644310077617709,0.52613364176465638
0.093018597827209296,0.40000000000000002,Y,0.25104435974434203,0.074226390932616904,0.39460023132349231
0.4709221545998849,0,Y,0.75406632964099751,0.30148687249967498,0
0.098847763291047705,1.2,N,0.53101948213580163,0.15582237610963079,0.39460023132349231
0.27905579348162779,0,N,0.1264554302801425,0.1180303080134493,0.13153341044116409
0.5616338912009794,0,N,1.3280153305434896,0.56987650403566614,0
0.1271254170305193,0,Y,0.45495957388612168,0.2109655246552225,0.39460023132349231
0.4147389215122505,0.80000000000000004,Y,1.1833615173079022,0.23791561945225281,0.26306682088232819
0.27905579348162779,0.40000000000000002,Y,0.4759577080654811,0.18610388431974759,0.13153341044116409
0.31006199275736429,0.40000000000000002,N,0.80959472891530382,0.22138057343960851,0.26306682088232819
0.18603719565441859,0,N,1.9406942233768001,0.2084793829971737,0.13153341044116409
0.48933983696967231,0,N,0.46055907633395088,0.41686986067960258,0.26306682088232819
0.58911778623899214,0.40000000000000002,N,0.62667764895288358,0.37256637329829878,0.39460023132349231
0.51134803721559008,0.40000000000000002,Y,1.1786952652680445,0.27143844240078152,0.39460023132349231
0.52617520170924725,0,Y,1.034508077236443,0.74424824313387894,0.13153341044116409
0.087521198695621194,0,N,0.13018843191202861,0.094680058028638894,0.26306682088232819
1.0542107753750387,0,N,1.3541463419666928,0.81541478462235784,0
0.27905579348162779,0.80000000000000004,N,0.47549108286149538,0.33866413647719651,0.52613364176465638
0.58142824881860955,0,N,1.2505555466818523,0.73624281180206497,0
0.83716738044488359,0,N,1.4451382567439168,0.34770473296282378,0.52613364176465638
0.58911778623899214,0,N,1.384943605429753,0.4258413914593121,0.52613364176465638
0.36423912475185849,0.80000000000000004,Y,0.6500089091521718,0.31656050010870118,0.52613364176465638
0.4960991884117828,0.80000000000000004,Y,0.59121413344996543,0.31662762660473343,0.39460023132349231
0.046509298913604599,0,N,2.2080704652606444,0.1093251948379923,0
0.25633445065236821,0,N,1.8389699289079031,0.1724399131273994,0.26306682088232819
0.43408678986031002,0,N,1.8665008159430641,0.55902886227685,0.13153341044116409
0.29455889311949601,0,N,1.7475113889266931,0.62615535830912838,0
0.1240247971029457,0,N,0.66820729210761676,0.28650677447512057,0.13153341044116409
0.1240247971029457,0,N,1.4311395006243439,0.2482580224509327,0.52613364176465638
0.15503099637868209,0,Y,0.0051328772438432998,0.14881138652403739,0
0.15935636117764729,0,Y,0.58094837896227858,0.082898612125018104,0.39460023132349231
0.25440896567734489,0,Y,1.3401475858471197,0.34292256680048872,0
0.1240247971029457,0.40000000000000002,N,0.27204249392370139,0.090598692484880797,0.39460023132349231
0.34106819203310068,0,Y,1.7335126328071202,0.5963213600725602,0.13153341044116409
0.71348985277382615,0,N,0.2776419963715307,0.3578164445701395,0
0.52617520170924725,0.40000000000000002,N,0.52821973091188701,0.38258209401628829,0.26306682088232819
0.30698617778921122,0,Y,0.84925787125409402,0.080945007335491995,0.13153341044116409
0.077515498189341003,0,N,1.6971158668962305,0.1627960731974287,0.52613364176465638
0.4960991884117828,0.40000000000000002,Y,0.25991023862007162,0.1947098740360636,0.13153341044116409
0.35656509043111378,0,N,1.869767192370964,0.16915004355685739,0
0.48933983696967231,0,N,1.8637010647191488,0.27779368070513533,0.26306682088232819
0.20322703253288679,0.40000000000000002,Y,0.34110302411359478,0.1123303734803618,0
0.14738176701735789,0.40000000000000002,N,0.96358104623060636,0.3572329661496278,0
0.58911778623899214,0.40000000000000002,N,0.14698693925551609,0.4258413914593121,0.13153341044116409
0.1240247971029457,0,N,1.9546929794963728,0.1239497461885624,0
0.58363589020704199,0,N,1.7419118864788641,0.49247913201547999,0
0.19527394241866039,0.40000000000000002,N,0.4269620616469757,0.31982598038568472,0
0.95902174359852776,0.80000000000000004,Y,0.62714427415686924,0.56666494871049522,0
1.2092417717537207,0,Y,1.859034812679291,0.35908714914003048,0.52613364176465638
0.17313861675571221,0,N,2.1212781773192915,0.16333062386083241,0
0.66278851571814201,0,N,1.5958581976313195,0.30308030634549021,0.26306682088232819
0.0049113819652766002,0.40000000000000002,N,0.95238204133494797,0.0613551836584098,0.13153341044116409
0.080430080921260305,0,Y,0.89545376644868457,0.17834704477823979,0
0.40399837408313538,0,Y,0.30377300779473349,0.12131555331426459,0.39460023132349231
0.18603719565441859,0,Y,0.51888722683217148,0.26068887991116801,0.26306682088232819
0.093018597827209296,0.40000000000000002,N,0.60987914160939594,0.1189773882874692,0
0.2821564134092015,0,Y,0.88705451277694092,0.25074423869397722,0.26306682088232819
0.58142824881860955,0.80000000000000004,N,0.55061774070320357,0.32701977779547281,0.52613364176465638
0.50139504724807871,0.40000000000000002,N,0.3733001631886127,0.63998341649177759,0
0.14535706220465239,0,Y,1.6905831140404295,0.2117611228031962,0.13153341044116409
0.52710538768751936,0,N,0.1217891782402848,0.53665336359942384,0
0.57446425646127919,0,N,1.3662785972703226,0.48512505145016588,0
0.16495298014691781,0,N,0.50255534469266983,0.1567671442487874,0
0.50760248834308108,0,N,1.610790204158864,0.58855773329645356,0.26306682088232819
0.29455889311949601,0,Y,1.610790204158864,0.217180990677838,0
0.27751788599755128,0,N,0.3462359013574382,0.43620050149700451,0
0.43408678986031002,0,N,2.0270198861141671,0.22339638211545779,0
0.3117983399168055,0,N,1.0545729610078309,0.27451194089911279,0.13153341044116409
0.15503099637868209,1.2,N,0.96871392347444985,0.17864538476060551,0
1.0945002307139304,0,Y,1.8002400369770846,0.18013410127261029,0.13153341044116409
0.1528481599496703,0,N,1.9472269762326009,0.1260011319073088,0.26306682088232819
0.2480495942058914,0,Y,1.9495601022525295,0.22339638211545779,0.26306682088232819
0.85670128598859752,0,Y,0.4166963071592889,0.38789023356753399,0
0.35580233792893068,0,Y,0.8291929874827062,0.11594923746645749,0.13153341044116409
0.027781554551059798,0,N,1.5160652877497534,0.0198432634921018,0.13153341044116409
0.62809877996844798,0,N,0.28977425167516058,0.31673502899838502,0.13153341044116409
0.67506697063133358,0.40000000000000002,Y,0.59121413344996543,0.37707458877182659,0
0.2318767606636673,0,N,1.5715936870240594,0.2104285126869643,0.13153341044116409
0.1444888886249317,0,N,0.18198382955444861,0.1685018253601723,0.26306682088232819
0.093018597827209296,0,N,0.058794775702206398,0.1101376491949696,0.26306682088232819
0.71190233537090841,0,Y,1.5645943089642731,0.35705269421528329,0.13153341044116409
0.3445408863519831,0,N,1.1404319985412117,0.22548476199201761,0.13153341044116409
0.62595315097856696,0.80000000000000004,Y,1.0970358545705354,0.35082067032364661,0
0.093018597827209296,0,N,1.7260466295433481,0.14881138652403739,0.52613364176465638
0.67845594821217148,0.40000000000000002,Y,1.1539641294567988,0.37888618372974658,0.26306682088232819
1.0342427830414644,0.40000000000000002,Y,0.98504580561395161,1.4232203693911067,0.26306682088232819
0.15503099637868209,0,N,0.093325040797153105,0.089143390050900995,0.13153341044116409
0.1271254170305193,0.40000000000000002,N,0.92905078113565964,0.15179478634769419,0
0.42788555000516271,0,Y,1.1978268986314611,0.3150293447342048,0
0.15503099637868209,0,N,1.3989423615493259,0.20305504002279651,0.13153341044116409
0.98646533057748198,0.40000000000000002,Y,0.92438452909580238,0.61151991754920187,0
0.032172032368504098,0,N,0.42509556083103273,0.089038076037125893,0.26306682088232819
0.71190233537090841,0.40000000000000002,N,0.87912188430918281,0.89316964252641362,0.26306682088232819
0.20895697815904291,0.40000000000000002,N,1.1054351082422793,0.28825549428175712,0.13153341044116409
0.83623719446661149,0,Y,0.88892101359288378,0.32058637441573928,0.26306682088232819
0.43408678986031002,0,N,0.76666521014861333,0.27933512880902323,0
0.1444888886249317,0,N,0.2029819637338082,0.12025599886689289,0.26306682088232819
0.15850369069756459,0.80000000000000004,Y,0.59588038548982314,0.18198679256310121,0.13153341044116409
0.85670128598859752,0.40000000000000002,Y,0.8254599858508197,0.82093690852595536,0.65766705220582056
0.29951988500361387,0.40000000000000002,Y,0.92765090552370277,0.13215409570361869,0.26306682088232819
0.27771632567291599,0,Y,1.6560528489454831,0.29669254898305852,0.26306682088232819
0.074290853464664394,0.40000000000000002,N,1.028441949584628,0.1685018253601723,0
0.43408678986031002,0,Y,1.5734601878400023,0.17722468976458011,0.78920046264698474
0.046509298913604599,0,N,1.8184384199325292,0.059790614205888597,0.78920046264698474
0.27905579348162779,0,Y,1.4362723778681874,0.18610388431974759,0.13153341044116409
0.15503099637868209,0,N,1.5309972942772978,0.14881138652403739,0.39460023132349231
0.0228701725857831,0,N,1.7251133791353763,0.071640752890449105,0.39460023132349231
0.37835934790202891,0,Y,1.5449960503968707,0.2184687752117194,0.39460023132349231
0.34106819203310068,0.40000000000000002,N,0.86325662737366693,0.19853474177998279,0.26306682088232819
0.179299548551801,0,N,0.1003244188569395,0.25258522014016022,0.13153341044116409
0.38342266024375671,0.40000000000000002,N,0.3700337867607123,0.49809292087865942,0.13153341044116409
0.51134803721559008,0.40000000000000002,Y,0.86932275502548195,0.23684607061547189,0.65766705220582056
0.2954270666992167,0,N,0.26457649065992911,0.1118172287106928,0.13153341044116409
0.18541707166890381,0,N,0.7321349450536665,0.086408582017550403,0.26306682088232819
0.1240247971029457,0,Y,1.5491956772327429,0.10619135707822749,0
0.69691393864101747,0,Y,1.3065505711601446,0.54682959122792607,0.39460023132349231
0.76275250218311619,0,Y,0.35976803227302551,0.38930995895861681,0.39460023132349231
0.44445526289811621,0.40000000000000002,Y,1.0704382179433469,0.45712785790002758,0
0.27905579348162779,0,N,1.944893850212672,0.37256637329829878,0.26306682088232819
0.20964221516303669,0,N,1.4694027673511767,0.12828059854257379,0
0.4960991884117828,0,N,1.8487690581916043,0.15813451097296491,0
0.2506541149450533,0,N,1.1133677367100374,0.22548476199201761,0.78920046264698474
0.55811158696325569,0,Y,1.7171807506676182,0.14135288696489531,0.9207338730881488
0.26567661849414759,0,N,1.7409786360708923,0.18744835345027849,0
0.20154029529228679,0,N,1.3233490785036319,0.22339638211545779,0.26306682088232819
0.0228701725857831,0.80000000000000004,N,0.37936629084042761,0.055988718640611501,0.52613364176465638
0.20183175356547869,0,N,0.42462893562704701,0.092989514518563798,0.78920046264698474
0.21581244881890821,0,N,0.61127901722135336,0.1558832374660335,0.52613364176465638
0.4147389215122505,1.2,N,0.77599771422832886,0.30599396919826899,0.13153341044116409
0.27905579348162779,0,N,1.8567016866593624,0.37256637329829878,0.9207338730881488
0.80557206338290821,0,Y,0.38589904369622829,0.52921447989412229,0
0.3445408863519831,0.40000000000000002,Y,0.75873258168085522,0.30076585934729277,0.52613364176465638
0.1240247971029457,0.40000000000000002,N,0.42976181287089038,0.14890692990339,0.13153341044116409
0.26355269384375968,0,N,0.21791397026135251,0.28306437858859418,0.26306682088232819
0.50017340299661461,0,N,1.7241801287274052,0.23195873960935279,0.13153341044116409
0.41002597922233852,0.40000000000000002,N,0.43816106654263409,0.4240001862581424,0.26306682088232819
0.3478771533940524,0,N,1.7475113889266931,0.60724060342714414,0.26306682088232819
0.4000047756164205,0,N,1.3480802143148776,0.51803694869980532,0.39460023132349231
0.1240247971029457,0,N,2.0638832772290421,0.078987151201217298,0
0.1240247971029457,0,N,2.1735402001656978,0.1239497461885624,0.78920046264698474
0.81304455740836068,0,Y,1.448871258375803,0.40571194533912608,0.26306682088232819
0.15503099637868209,0,N,0.11478980018049841,0.17864538476060551,0.52613364176465638
0.12248688961886919,0.40000000000000002,N,0.46849170480170887,0.1187463985561225,0
0.084677930222036096,0,N,1.929961843685128,0.198410408592332,0
0.57130782537500913,0.80000000000000004,N,0.75546620525295483,0.4136008749078261,0.39460023132349231
0.0544282822086277,0,Y,1.88563244930648,0.0757568004571572,0.26306682088232819
0.088259146238383698,0,N,0.33410364605380838,0.095271815383661196,0.26306682088232819
0.26615721458292152,0,Y,1.3074838215681162,0.26439053324237027,0.26306682088232819
0.1403960703205345,0,N,0.82172698421893364,0.051179627294867899,0.13153341044116409
0.15503099637868209,0.40000000000000002,N,0.58981425783800812,0.17864538476060551,0.13153341044116409
0.2433366519159795,0.40000000000000002,Y,1.0247089479527418,0.1688537173693726,0.39460023132349231
0.59367569753252536,0.40000000000000002,Y,0.63181052619672695,0.37530737188628338,0.9207338730881488
0.1444888886249317,0,N,0.33597014686975141,0.059948659811546803,0
0.27905579348162779,0,N,0.35090215339729591,0.087388479689630497,0.39460023132349231
0.33176013101052459,0,N,1.8534353102314616,0.3486932079093969,0
0.1240247971029457,0,N,1.3387477102351619,0.14881138652403739,0.26306682088232819
0.2673354501553995,0.40000000000000002,N,0.80632835248740342,0.084071610350684403,0.52613364176465638
0.1976366148034715,0,N,1.5851258179396468,0.152418391495834,0.26306682088232819
0.1240247971029457,0,N,0.3541685298251962,0.052916413502209797,0
0.3558085391687858,0,N,1.3345480833992904,0.30980063820326392,0.65766705220582056
1.0164886333361776,0.80000000000000004,N,0.47502445765750961,0.33560600248795719,1.0522672835293128
0.043284654188927997,0.40000000000000002,N,1.2640876775974397,0.1187784701042268,0.13153341044116409
0.44958988949817819,0.40000000000000002,N,1.297218067080429,0.770352991590876,0.65766705220582056
0.3445408863519831,0.40000000000000002,Y,0.1815172043504629,0.23127561563473101,0.26306682088232819
0.15472093438592471,0,N,1.2486890458659092,0.34330608284781983,0.39460023132349231
0.74414878261767436,0,N,1.4400053795000736,0.74549135125540111,0
0.85670128598859752,0,N,1.9094303347097541,0.60974665927901572,0.26306682088232819
0.28835765326434881,0,Y,1.8030397882009996,0.23971184990108099,0.39460023132349231
0.34416261072081922,0,N,1.1231668659937384,0.45087316016973111,0
0.2243670591990839,0,N,1.0891032261027771,0.30678986568622513,0.39460023132349231
0.15935636117764729,0.40000000000000002,N,0.7909297207558732,0.18280722751460679,0.13153341044116409
0.110146422307126,0.40000000000000002,N,0.98971205765380943,0.16941176230638769,0.13153341044116409
0.39616620814608428,0.40000000000000002,Y,0.6864056750630616,0.2182706774634286,0.13153341044116409
0.7241807902841001,0,Y,1.6863834872045578,0.1064997660349981,0.13153341044116409
0.2821564134092015,0.80000000000000004,Y,0.63367702701266992,0.18796850920953309,0.13153341044116409
1.0342427830414644,0,Y,1.9537597290884012,0.42671508009767001,0
0.59841964602171305,0,N,0.85485737370192305,0.2159378825563158,0.65766705220582056
0.31936075192015762,0.40000000000000002,N,0.85579062410989448,0.2103421432620694,0.26306682088232819
0.41002597922233852,0,N,0.091925165185195806,0.1764575830849224,0.39460023132349231
0.021642327094463999,1.2,N,0.75359970443701174,0.066296812541319403,0
0.15503099637868209,0,N,1.8623011891071917,0.29798137770687833,0.39460023132349231
0.51389674679605557,0,Y,0.42462893562704701,0.17677069089641509,0.39460023132349231
0.41796356623692699,1.2,Y,0.5772153773303923,0.35963833225745101,0
0.74724940254524796,0,N,1.5459293008048425,0.4676622426773599,0.13153341044116409
0.15753629728016161,0,Y,1.6527864725175829,0.050034300102566098,0.26306682088232819
0.2956255063745814,0,N,1.6084570781389349,0.1960684397307613,0.26306682088232819
0.3565712916709689,0,N,1.3508799655387922,0.4049946614365233,0
0.57051406667355031,0,Y,0.3481024021733814,0.18051000965039099,0.26306682088232819
0.41996036547028448,0,Y,1.7806417784096824,0.2082556280103994,0.26306682088232819
0.4000047756164205,0,N,1.5048662828540948,0.16164000576576171,0.13153341044116409
0.2159705804352145,0,N,0.74426720035729677,0.19767447844083141,0.13153341044116409
0.87445543569388418,0,N,1.8926318273662663,0.48365826292686509,0.13153341044116409
0.27905579348162779,0,N,0.76573195974064168,0.43837666791337537,0.78920046264698474
0.1271254170305193,0,Y,0.74053419872541038,0.12643588784661119,0.26306682088232819
0.30386075290221698,0,Y,0.4759577080654811,0.22339638211545779,0.26306682088232819
0.58911778623899214,0.40000000000000002,Y,0.58048175375829258,0.29798137770687833,0.13153341044116409
0.27905579348162779,0,N,0.28837437606320332,0.18610388431974759,0.52613364176465638
0.41965030347752708,0.40000000000000002,Y,1.0629722146795748,0.1664180697533392,0
0.76665928329185884,0,N,1.7587103938223514,0.23948809491430681,0.39460023132349231
0.21704339493015501,0,N,1.2897520638166569,0.29798137770687833,0.39460023132349231
0.074762147693655606,0,N,2.003688625914879,0.14098824092144879,0
0.16495298014691781,0,N,0.3802995412483991,0.1567671442487874,0
0.74724940254524796,0,Y,1.5706604366160877,0.34002016628204418,0
0.43331163487841662,0,N,0.69153855230690509,0.31875859451377597,0
0.20705939876336779,0,N,0.93558353399146044,0.142807294378928,0.13153341044116409
0.43718740978788367,0,N,1.8114390418727431,0.54902358345824331,0
0.27905579348162779,0,Y,1.2034264010792901,0.099088031268091806,0.26306682088232819
0.16567852520997001,0,N,0.67054041812754539,0.15734890721440051,0.39460023132349231
1.7034805882089594,0,Y,0.96171454541466361,0.83409832601800871,0.26306682088232819
0.68734542554452505,0,Y,1.6681851042491129,0.34523843091360229,0.26306682088232819
0.61826361355818449,0,Y,1.2426229182140949,0.55743058040632143,0.39460023132349231
0.078730941200949894,0,N,1.5473291764167996,0.043636622935720799,0.13153341044116409
0.2204168694113551,0.80000000000000004,Y,0.42649543644298998,0.37763815299851528,0
0.27905579348162779,0.40000000000000002,Y,0.1367211847678293,0.2127413934002543,0.13153341044116409
0.20895697815904291,0.40000000000000002,Y,0.27157586871971567,0.095846119849715194,0.39460023132349231
0.58911778623899214,0,Y,1.4460715071518886,0.099088031268091806,0
0.30695827220986299,0,N,1.2426229182140949,0.21643312692704281,0.9207338730881488
0.43408678986031002,0,Y,0.74100082392939626,0.2147903923991418,0
0.80698904668980942,0,N,1.0998356057944505,0.44759388166856312,0.39460023132349231
0.36273532408698528,0,N,0.21558084424142379,0.2488887131736538,0.13153341044116409
0.54459288407903461,0,N,1.0895698513067631,0.7688612916790476,0
0.062012398551472801,0,N,0.38963204532811457,0.082513604377775204,0.13153341044116409
0.58142824881860955,0,N,2.055950648761284,0.32701977779547281,0
0.22634525471287589,0,Y,0.51748735122021416,0.1544052611933939,0.13153341044116409
0.13937286574443519,0.40000000000000002,N,0.3541685298251962,0.1167398384197265,0
0.093018597827209296,0,N,1.8585681874753053,0.059309391814332799,0
0.43408678986031002,0,N,0.76106570770078419,0.46579761778757428,0.13153341044116409
0.4709221545998849,0,Y,0.88285488594106909,0.20087171344684879,0
0.15503099637868209,0,N,0.19504933526605009,0.17864538476060551,0.26306682088232819
0.3445408863519831,0,N,0.91878502664797279,0.56424981196824942,0
0.14299438981984119,0,N,2.1922052083251282,0.24585086630321529,0
0.27112750832682198,0,N,1.0359079528484003,0.30246580056681249,0
0.38803638269598623,0,Y,0.69713805475473412,0.083641478681108702,0.26306682088232819
0.31936075192015762,0,N,0.95844816898676299,0.3367625920145933,0.13153341044116409
0.27905579348162779,0.40000000000000002,N,1.4638032649033474,0.1730948439736876,0
0.32629683869813991,0.80000000000000004,N,0.61034576681338171,0.42938522293984288,0.26306682088232819
0.59831422494417552,0,N,0.99671143571359599,0.3780968507214027,0.65766705220582056
0.15503099637868209,0,Y,1.1618967579245569,0.27933512880902323,0.13153341044116409
0.077515498189341003,0,N,0.17218470027074759,0.074226390932616904,0
0.64651336171830787,0,Y,0.5202871024441289,0.29596213812123168,0.26306682088232819
0.20588116319088989,0.40000000000000002,Y,1.6602524757813548,0.18958454230901239,0.13153341044116409
0.2954270666992167,0.40000000000000002,N,0.5991467619177232,0.22399306208018921,0.13153341044116409
0.20588116319088989,0.40000000000000002,N,0.69293842791886229,0.51766812589660571,0.13153341044116409
0.1204900903855117,0.80000000000000004,Y,0.52915298131985833,0.1454103107250686,0.13153341044116409
0.046509298913604599,0,N,0.5170207260162285,0.1550267779616572,0
1.3218934949623262,0,N,1.6616523513933124,0.32507959830515321,0.39460023132349231
0.1444888886249317,0,N,1.3821438542058382,0.2810754205111578,0.13153341044116409
0.68981351900687371,0,N,1.7316461319911771,0.38495740237088832,0.26306682088232819
0.54293715303771029,0,Y,0.86372325257765259,0.21204342701150969,0.39460023132349231
0.2752110247714365,0,N,1.9761577388797185,0.36794210357163071,0
0.71055666632234138,0,Y,1.9126967111376545,0.59424789719511872,0.39460023132349231
0.57314959361198781,0,N,1.8702338175749496,0.2072540261046022,0.39460023132349231
0.7782556018209843,0,Y,1.7134477490357325,0.29912886786405229,0
0.27905579348162779,0,Y,0.61921164568911147,0.18610388431974759,0
0.27905579348162779,0,Y,1.0816372228390052,0.16538581341435399,0.26306682088232819
0.077515498189341003,0,N,0.65327528558007231,0.2369572768438987,0
0.27905579348162779,0.40000000000000002,N,0.58701450661409338,0.2482580224509327,0.13153341044116409
0.38873712279961792,0,N,0.37283353798462687,0.40351616306891458,0.26306682088232819
0.15503099637868209,0,N,1.3074838215681162,0.22339638211545779,1.0522672835293128
0.15503099637868209,0.40000000000000002,N,0.35090215339729591,0.22339638211545779,0.65766705220582056
0.38527062972059051,0,Y,0.47269133163758081,0.28574093574038789,0
0.37728343278716081,0.40000000000000002,N,1.1003022309984358,0.32701977779547281,1.4468675148528052
1.1056438587336299,0.40000000000000002,N,1.1544307546607848,0.68319050443788742,0.39460023132349231
0.37728343278716081,0,N,0.20578171495772271,0.28025148006485939,0.13153341044116409
0.27905579348162779,0.80000000000000004,Y,0.52681985529992958,0.29798137770687833,0
0.25372372867335119,0.80000000000000004,N,1.5141987869338105,0.1953310924643446,0.26306682088232819
0.15503099637868209,0.40000000000000002,N,0.57114924967857761,0.14881138652403739,0.26306682088232819
0.96119217754782915,0,N,1.8184384199325292,0.79521470651134651,0
0.1444888886249317,0,N,2.0610835260051279,0.31234592576281678,0
0.1240247971029457,0,Y,1.4619367640874044,0.1239497461885624,0.13153341044116409
0.52710538768751936,0.40000000000000002,N,0.25057773454035631,0.22339638211545779,0.26306682088232819
0.062899175850758896,0,N,1.2132255303629913,0.0899966424004668,0.39460023132349231
0.34044806804758598,0,N,1.6317883383382232,0.25493516959625911,0.52613364176465638
0.19769552658209541,0.40000000000000002,N,0.98644568122590925,0.18302106269696741,0.26306682088232819
0.43592235685743358,0,N,1.4572705120475469,0.22427946846326019,1.0522672835293128
0.27905579348162779,0.40000000000000002,Y,1.0788374716150906,0.16538581341435399,0.26306682088232819
0.15503099637868209,0,Y,1.0503733341719588,0.063571402217413295,0.26306682088232819
0.062012398551472801,0,N,1.4241401225645576,0.22339638211545779,0.65766705220582056
0.36423912475185849,0.80000000000000004,Y,1.0279753243806422,0.094717126771447793,0
0.1550185938989718,0.40000000000000002,Y,0.32150476554619267,0.18609142862548381,0.26306682088232819
0.71190233537090841,0,N,1.5557284300885432,0.99245055059310483,0
0.8602514958056694,0,N,0.89825351767259931,0.42842307649671357,0.13153341044116409
0.17053409601655031,0,N,1.1385654977252688,0.13815639780883379,0.13153341044116409
0.1444888886249317,0,N,2.1343436830308931,0.14035844521867491,0
0.47426772350173679,0,N,1.125499992013667,0.23796096712957249,0.26306682088232819
0.66807197207472746,0,N,1.8039730386089707,0.56018246840366248,0.39460023132349231
0.13332665688566661,0,N,0.46989158041366619,0.1408201263413858,0.26306682088232819
0.2821564134092015,0,N,0.36443428431288299,0.30096477753053508,0.26306682088232819
0.65618419527241001,0,N,1.4236734973605716,0.13739369164391591,0.26306682088232819
0.31365251063349447,0.80000000000000004,Y,0.73960094831743894,0.24348607443299369,0.65766705220582056
0.52617520170924725,0,N,1.508599284485981,0.66978758073010924,0
0.1953390554371395,0,N,0.39009867053210018,0.2718766292498811,0
0.64651336171830787,0,N,1.0555062114158025,0.46528827685268059,0.13153341044116409
0.27905579348162779,0,N,0.48808996336911109,0.16538581341435399,0
0.58911778623899214,0.40000000000000002,N,0.58188162937025001,0.043514900222915598,0.78920046264698474
0.79988862705566566,1.2,N,0.41249668032341702,0.79912392988527969,0.26306682088232819
0.049721541158570901,0,N,1.6835837359806434,0.2336046067070687,0.13153341044116409
0.27905579348162779,0.80000000000000004,Y,0.99111193326576685,0.2482580224509327,0.52613364176465638
0.73645924519729167,0.40000000000000002,N,1.0172429446889697,0.512454709289761,0
0.50760248834308108,0,N,1.6593192253733835,0.51788777870862246,0.13153341044116409
0.143825355960431,0,N,1.3121500736079734,0.28967932184759732,0.26306682088232819
0.86735501605974064,0.40000000000000002,N,1.4731357689830629,1.0801393094749865,1.183800693970477
0.1240247971029457,0.40000000000000002,N,0.48015733490135298,0.18610388431974759,0.39460023132349231
0.44276852565751618,0,N,0.96404767143459202,0.56947076165964883,1.183800693970477
0.67903576413862776,0.40000000000000002,Y,1.0205093211168701,0.17044103524554929,0
0.43718740978788367,0,N,1.4652031405153048,0.3750525149563475,0.13153341044116409
0.80554105718363245,0,N,1.9528264786804299,0.2363829723778447,0.52613364176465638
0.65989873794564324,0,Y,0.064860903354021393,0.4744878139639131,0.26306682088232819
0.64651336171830787,0,Y,1.64205409282591,0.27126876153581098,0
0.41002597922233852,0.40000000000000002,N,0.14605368884754469,0.35327369624365279,0.13153341044116409
0.081533901615476495,0,N,1.3877433566536677,0.084239426590765096,0
0.76785922320382993,0,N,2.0550173983533129,0.48005640431976421,0.13153341044116409
0.67847145131180941,0,Y,1.7353791336230633,0.48725251386441559,0
0.031006199275736401,0.80000000000000004,N,0.45915920072199351,0.099088031268091806,0
0.17313861675571221,0,N,1.6644521026172268,0.13994643770302789,0.13153341044116409
0.58911778623899214,0.80000000000000004,N,0.97384680071829322,0.4258413914593121,0.13153341044116409
0.1240247971029457,0.40000000000000002,Y,0.37096703716868379,0.022949206463515299,0.13153341044116409
0.21309940638228131,0.40000000000000002,N,0.636010153032599,0.23451849665805041,0
0.1323096535494224,0.40000000000000002,Y,0.49228959020498297,0.1960684397307613,0.13153341044116409
0.32816961313439441,0.80000000000000004,Y,0.42182918440313227,0.30821018775727249,0.52613364176465638
0.87127419964819364,0,N,1.1203671147698238,1.2054321822641592,0
0.13952789674081389,0,N,1.3989423615493259,0.20475013321760269,0.52613364176465638
0.74414878261767436,0.40000000000000002,Y,0.55388411713110397,0.74549135125540111,0.13153341044116409
0.48933983696967231,0.40000000000000002,Y,0.68733892547103304,0.27779368070513533,0
0.099219837682356496,0.40000000000000002,N,0.61921164568911147,0.1156625327434041,0.26306682088232819
0.1813056496449412,0,N,0.67054041812754539,0.084760253614980005,0.9207338730881488
0.27905579348162779,0,N,0.44282731858249169,0.15833290706123809,0.52613364176465638
0.15503099637868209,0.80000000000000004,N,1.0219091967288272,0.1115188887283271,0.26306682088232819
0.48933983696967231,0.40000000000000002,Y,0.68173942302320389,0.2082556280103994,0.39460023132349231
0.2041448160314486,0.40000000000000002,N,0.1227224286482563,0.14105454698252959,0
0.18649608740369941,0.40000000000000002,N,0.5062883463245561,0.071312504324851297,0.13153341044116409
0.56377952019086031,0,Y,0.57674875212640664,0.23809954605138131,0.52613364176465638
0.89917977899635648,0,N,1.0447738317241295,0.55902886227685,0
1.5473767773353366,0,N,0.70880368485437828,1.0844354052210523,0
0.27786515542943951,0.40000000000000002,Y,0.75266645402904053,0.13472973935637719,0.13153341044116409
0.3445408863519831,0.80000000000000004,N,0.44469381939843489,0.45132812864283878,0.39460023132349231
0.37728343278716081,0.80000000000000004,Y,0.58794775702206503,0.25809802091930889,0.13153341044116409
0.52617520170924725,0,N,0.8903208892048412,0.53575834365232677,0.39460023132349231
0.43718740978788367,0,N,1.2057595270992187,0.38799778513117689,0.52613364176465638
0.52617520170924725,0,N,1.5160652877497534,0.20584019292817129,0.26306682088232819
0.087437481957576696,0.40000000000000002,N,1.1992267742434184,0.18958454230901239,0.26306682088232819
0.43408678986031002,0,N,1.5272642926454114,0.74549135125540111,0.26306682088232819
0.46465580172625848,0,N,1.9416274737847721,0.74483410827424934,0
0.071221239736366501,0,N,1.9145632119535971,0.1362562704611468,0
0.1767353358716976,0.40000000000000002,Y,0.33597014686975141,0.1245712629568257,0
0.2366889227912615,0.40000000000000002,N,1.2519554222938098,0.098708617395518297,0.39460023132349231
0.59662128646372037,0,N,0.93185053235957438,0.60354118764580966,0.52613364176465638
0.71348985277382615,0,Y,0.96918054867843584,0.51132004775182871,0.13153341044116409
0.40308059058457357,0,Y,0.89172076481679852,0.29798137770687833,0.26306682088232819
0.66278851571814201,0,Y,0.7321349450536665,0.35472944618760621,0.39460023132349231
0.18195367920980399,1.6000000000000001,N,0.62994402538078398,0.1182228864720664,0.26306682088232819
0.55205917686463191,0,N,1.0923696025306775,0.50055422573317632,0.26306682088232819
0.54367510058047286,0,N,0.1110567985486122,0.34523843091360229,0.26306682088232819
0.1444888886249317,0,Y,0.3051728834066908,0.1915282272941248,0.65766705220582056
0.82968558455964836,0,Y,0.28044174759544521,0.41371789876590909,0
0.63823160589175865,0,N,0.46989158041366619,0.80456266776380603,0.13153341044116409
0.58911778623899214,0,Y,0.73960094831743894,0.27085958824999651,0
0.1012042344360037,1.6000000000000001,N,0.52915298131985833,0.1268535638219232,0
0.82829340621216785,0,N,1.1049684830382935,0.82645485566979993,0
0.51389674679605557,0,Y,1.186161268531817,0.32733057347210232,0.39460023132349231
0.0217043394930155,0.40000000000000002,Y,0.88798776318491257,0.050359192343362301,0.39460023132349231
0.17554469781950929,0,Y,1.7573105182103941,0.33087835795739939,0.13153341044116409
0.89917977899635648,0,Y,0.80166210044754571,0.3192913551372854,0.52613364176465638
0.54880972718053478,0,N,2.0265532609101813,0.30958352128109728,0.65766705220582056
0.33176013101052459,0,N,1.9514266030684728,0.3486932079093969,0
0.2480495942058914,0,N,1.7722425247379388,0.19707227918642631,0.78920046264698474
0.12500459300005889,0.80000000000000004,N,0.51282109918035679,0.187282327250092,0.39460023132349231
1.0303049957334458,0.40000000000000002,Y,1.169829386392315,0.25493837675106951,0
0.75345064240039517,1.2,N,0.51235447397637079,0.75444155072637142,0.26306682088232819
0.86817357972062004,0,Y,0.53101948213580163,1.0811238314167932,0
0.184499288170342,0,N,1.416674119300785,0.34523843091360229,0.26306682088232819
0.15472093438592471,0.80000000000000004,N,0.33503689646177981,0.74424824313387894,0.13153341044116409
0.21396757996200191,0.40000000000000002,N,0.65514178639601517,0.0978549175359789,0.52613364176465638
0.27905579348162779,0.40000000000000002,Y,0.52122035285210055,0.1730948439736876,0
0.32816961313439441,0.40000000000000002,N,0.70740380924242086,0.13256334357442881,0.26306682088232819
0.15503099637868209,0.80000000000000004,Y,1.1203671147698238,0.089143390050900995,0.13153341044116409
0.1085216974650775,0,N,0.1362545595638435,0.1338943874057533,0
0.30053688833985809,0.80000000000000004,Y,1.1833615173079022,0.22750497118260679,0.39460023132349231
0.61160968319361142,0,Y,1.568327310596159,0.25727534841793548,0.52613364176465638
0.33176013101052459,0,N,1.5799929406958031,0.2905178809530316,0.13153341044116409
0.062012398551472801,0,N,1.6331882139501803,0.14881138652403739,0
0.41002597922233852,0,Y,1.2822860605528843,0.23539628747116589,0.65766705220582056
0.32200868133830551,0,N,1.1483646270089696,0.15403643839019429,0.13153341044116409
0.17372463392202361,0.40000000000000002,N,0.42789531205494719,0.30743965016781749,0.13153341044116409
0.71190233537090841,0,Y,1.186161268531817,0.35705269421528329,0.39460023132349231
0.53731882972894685,0,N,1.39520935991744,0.39024085428859329,0
0.95902174359852776,0,N,2.0279531365221386,2.6457513110645907,0.13153341044116409
0.59036733606980429,0.40000000000000002,N,0.7288685686257661,0.19893548696129551,1.0522672835293128
0.13425684286393871,0,N,1.6126567049748068,0.198410408592332,0
0.27905579348162779,0.40000000000000002,N,0.53988536101153117,0.2660164115612676,0.52613364176465638
1.0342427830414644,0,N,1.0494400837639877,0.51212981704896476,0.39460023132349231
0.1463430593416207,0.40000000000000002,N,1.5277309178493976,0.42625265312500332,0.13153341044116409
0.21396757996200191,0,N,0.37749979002448458,0.29428196192554379,0.13153341044116409
0.52710538768751936,0,N,1.5300640438693265,0.44715136888971918,0.13153341044116409
0.52617520170924725,0,Y,0.51748735122021416,0.1967432101858769,0.39460023132349231
0.74414878261767436,0,Y,1.3891432322656252,0.28650677447512057,0.26306682088232819
0.33670561979500457,0.80000000000000004,N,0.57908187814633527,0.19620269272282589,0.26306682088232819
0.3445408863519831,0,Y,1.9752244884717469,0.18031608866185339,0.9207338730881488
0.021642327094463999,0,N,1.7395787604589352,0.1051791641030564,0.26306682088232819
0.1567673435381233,0,N,0.28510799963530281,0.12869476902309299,0.26306682088232819
0.0248049594205891,0,N,1.7997734117730988,0.066767891373474803,0.13153341044116409
0.37728343278716081,0,N,1.1632966335365145,0.28025148006485939,0
0.55960608576834625,0,Y,0.68733892547103304,0.21821212824188929,0.65766705220582056
0.64651336171830787,0,N,1.4479380079678317,0.4935092999745887,0.52613364176465638
1.0131554669140359,0,Y,1.0405742048882578,0.19285039551097391,0.39460023132349231
0.43408678986031002,0,N,0.66960716771957418,0.74549135125540111,0.52613364176465638
0.1853860654696281,0,N,0.76433208412868459,0.17913406565172049,0.26306682088232819
0.031006199275736401,0.80000000000000004,N,0.3733001631886127,0.067445943568396394,0
0.1767353358716976,0,N,1.8707004427789355,0.24950113057245499,0.13153341044116409
0.2318767606636673,0.40000000000000002,N,0.38403254288028532,0.18031608866185339,0.13153341044116409
0.43408678986031002,0.40000000000000002,N,0.98597905602192359,0.27933512880902323,0.13153341044116409
0.168034996354926,0,Y,1.3499467151308209,0.14472957347030571,0.26306682088232819
0.25274393277623791,0,N,1.9682251104119608,0.27266424680332652,0
0.29455889311949601,0,N,1.8156386687086148,0.1562698860831794,0
0.3117983399168055,0.40000000000000002,N,0.78253046708412954,0.23524473076012409,0.13153341044116409
0.2027402352042578,0.40000000000000002,N,0.95518179255886282,0.18706603076287689,0
0.27905579348162779,0,N,0.93558353399146044,0.14881138652403739,0.39460023132349231
0.87307255920618643,0.40000000000000002,N,1.1516310034368702,0.36209963711196802,0.26306682088232819
0.1240247971029457,0,Y,1.1385654977252688,0.17722468976458011,0.13153341044116409
0.15503099637868209,0.40000000000000002,N,0.78113059147217223,0.20305504002279651,0.78920046264698474
0,0,Y,1.1222336155857668,0.049364750597141897,0.26306682088232819
0.83716738044488359,0,Y,0.53615235937964512,0.26068887991116801,0
0.14799879038294511,0,Y,0.39103192094007172,0.050299524346889203,0.26306682088232819
0.1506808266202963,0,Y,1.6075238277309636,0.12451159496035261,0.26306682088232819
0.60046605517391172,0,N,1.749844514946622,0.33719652751894419,1.0522672835293128
0.27905579348162779,0,Y,1.006510564997297,0.18610388431974759,0.13153341044116409
0.62259207897707713,0,N,0.97151367469836436,0.3926968636084231,0.39460023132349231
0.61826361355818449,0,N,1.4698693925551625,0.5202446645693114,0.13153341044116409
0.48142085367464921,0,N,0.70787043444640685,0.30780049237648882,0.13153341044116409
0.071314258334193706,0.80000000000000004,N,1.0998356057944505,0.20475013321760269,0
0.26045207391618602,0,N,1.3499467151308209,0.19995536219101259,0.65766705220582056
0.89917977899635648,0,Y,1.907097208689825,0.44715136888971918,0.26306682088232819
0.093018597827209296,0.40000000000000002,N,0.243111731276584,0.22913368373133661,0.13153341044116409
0.19432205210089529,0,N,1.1199004895658382,0.30076585934729277,0
0.093018597827209296,0.80000000000000004,Y,0.79279622157181628,0.099088031268091806,0
0.3445408863519831,0,N,0.4703582056176519,0.32227475496094221,0.13153341044116409
0.27905579348162779,0.80000000000000004,N,0.44469381939843489,0.18610388431974759,0.13153341044116409
0.035099017580133597,0,N,1.7797085280017111,0.060801091726161202,0.39460023132349231
0.66278851571814201,0.40000000000000002,N,0.31310551187444891,0.51793760148567747,0.52613364176465638
0.18090877029421171,0,N,2.109145922015661,0.24238355902816131,0.65766705220582056
0.164332856161403,0,N,0.40689717787558771,0.066767891373474803,0.13153341044116409
0.15503099637868209,0.80000000000000004,Y,0.5963470106938088,0.057014486084980401,0
0.43718740978788367,0,N,1.1455648757850552,0.4501347687133761,0.26306682088232819
0.68734542554452505,0,N,1.8986979550180811,0.82249148358906732,0.13153341044116409
0.15503099637868209,0,Y,0.26364324025195768,0.14881138652403739,0
0.15935636117764729,0,N,1.6392543416019956,0.14735578575007521,0.13153341044116409
0.095350264012744601,0.80000000000000004,N,0.48995646418505412,0.1212209049548591,0.78920046264698474
0.35058089397089659,0,N,0.1600524449671176,0.26189931980462122,0
0.62259207897707713,0,N,2.0414852674377251,0.56114923911651848,0.13153341044116409
0.71190233537090841,0,Y,1.275286682493098,0.48262966125266382,0
0.6791597889357307,0.40000000000000002,N,0.44329394378647757,0.28435716031718028,0.26306682088232819
0.25633445065236821,0.40000000000000002,N,0.34903565258135288,0.1724399131273994,0.39460023132349231
0.3036127033080111,0.40000000000000002,N,0.78393034269608652,0.16062564982571831,0.39460023132349231
0.1240247971029457,0,N,1.7241801287274052,0.16915272861669869,0.13153341044116409
0.077515498189341003,0,N,1.9546929794963728,0.217180990677838,0.26306682088232819
0.25633445065236821,0,N,0.91598527542405839,0.19712538370328739,0.13153341044116409
0.58911778623899214,1.2,Y,0.68267267343117566,0.2660164115612676,0.26306682088232819
0.21704339493015501,0.40000000000000002,N,0.33783664768569438,0.2482580224509327,0.13153341044116409
0.48059608877391458,0,Y,1.2897520638166569,0.40985887109400898,0
0.35058089397089659,0,N,1.0653053406995034,0.26189931980462122,0.26306682088232819
0.3117983399168055,0,Y,0.8114612297312469,0.2057943231558825,0
0.4147389215122505,0.80000000000000004,Y,0.6075460155894673,0.42853495399010072,0
1.3271149389203605,0,N,1.3798107281859096,0.81637693106548703,0
0.83468688450282469,0.40000000000000002,Y,0.3802995412483991,0.83260662610618019,0
0.3590207814137521,0,Y,1.6369212155820667,0.141793609703845,0.13153341044116409
0.50775751933945978,0.40000000000000002,Y,1.034508077236443,0.39236533330301931,0.13153341044116409
0.48840965099140021,0,N,2.0125545047906082,0.35662651555047392,0.13153341044116409
0.15935636117764729,0,N,1.5561950552925294,0.4575559757747224,0.13153341044116409
0.20154029529228679,0.40000000000000002,Y,0.30657275901864822,0.17444997875858809,0.52613364176465638
0.31522762555670197,0.40000000000000002,Y,0.81519423136313296,0.16621355769542759,0.13153341044116409
0.018132425336450601,0,N,1.1894276449597174,0.098143337713930898,0.65766705220582056
0.31316261268493789,0,Y,0.99577818530562423,0.23618241332469939,0
0.1444888886249317,0,N,2.0592170251891848,0.42179247038863621,0.13153341044116409
0.38615740701987661,0,N,0.71953606454605101,0.26371546444727229,0.13153341044116409
0.53731882972894685,0.40000000000000002,Y,1.0181761950969412,0.68319050443788742,0.39460023132349231
0.33038345576268191,0,Y,1.7582437686183658,0.27130321980377431,0.13153341044116409
0.89607915906878277,0,N,1.7185806262795758,0.42850511999186408,0
0.1506808266202963,0,Y,0.92018490225993022,0.097414493137011504,0.26306682088232819
0.67506697063133358,0.40000000000000002,Y,0.7577993312728839,0.33933129926276179,0
0.54260848732538747,0,Y,0.912252273792172,0.76620942216079457,0.13153341044116409
0.4709221545998849,0,N,0.96871392347444985,0.48259415879476231,0
0.18603719565441859,0,N,1.5141987869338105,0.2266391885537816,0.26306682088232819
0.093018597827209296,0,N,0.094724916409110502,0.16538581341435399,0
0.29168771906656288,0,N,1.1408986237451977,0.1937003661207338,0
0.1444888886249317,0,Y,1.6537197229255542,0.12025599886689289,0.13153341044116409
0.051625321794101099,0,Y,2.058750399985199,0.13215409570361869,0
0.21704339493015501,0.40000000000000002,N,1.0737045943712471,0.17012136395444441,0
0.16427704500270671,0,N,2.053617522741356,0.27596567704818509,0.26306682088232819
0.50775751933945978,0,N,0.1208559278323133,0.25883917202050077,0.13153341044116409
0.68270999875280247,0,N,1.0933028529386497,0.47653994553261542,0.9207338730881488
0.89594893303182477,0,N,1.9906231202032769,0.27836365924144491,0.13153341044116409
0.37728343278716081,0,N,1.5272642926454114,0.3065586521998917,0.26306682088232819
0.039191835884530797,0,Y,0.42976181287089038,0.084071610350684403,0
0.1240247971029457,0,N,0.088192163553309694,0.12191186035401801,0
0.58911778623899214,0.40000000000000002,Y,0.91318552420014376,0.22913368373133661,0.26306682088232819
0.4960991884117828,0,Y,0.70367080761053491,0.2109655246552225,0
0.43408678986031002,0,N,1.1912941457756605,0.2190089943347881,0.13153341044116409
0.093018597827209296,0,Y,0.16985157425081879,0.074226390932616904,0.52613364176465638
0.67684982708968833,0,N,1.6845169863886149,0.42532593455477979,0
0.27905579348162779,0,N,0.71673631332213639,0.35480805877295951,0
0.16782105357992341,0.40000000000000002,Y,0.13812106037978669,0.15906682341785769,0.26306682088232819
0.3445408863519831,0,Y,0.3770331648204987,0.1502036646367424,0.26306682088232819
0.3255650923952324,0,N,1.5575949309044863,0.28555052024664301,0.13153341044116409
0.43408678986031002,0,Y,0.96731404786249242,0.44715136888971918,0.13153341044116409
0.50775751933945978,0,N,1.223491284850678,0.43163768980670381,0.26306682088232819
0.51134803721559008,0,N,0.1740512010866907,0.2895582703997524,0.26306682088232819
0.3445408863519831,0.40000000000000002,N,0.68080617261523224,0.20039108773525771,0.26306682088232819
0.83468688450282469,1.2,N,1.2790196841249839,0.69377911250701463,0
0.16495298014691781,0,N,0.069060530189893304,0.44018080437173618,0
0.34863370465638038,0,N,1.7755089011658389,0.15709285692453509,0.78920046264698474
0.43408678986031002,0,N,1.3373478346232046,0.33866413647719651,0.13153341044116409
0.52988974438248038,0.80000000000000004,Y,1.5692605610041308,0.53933245664106766,0
0.16203839741499859,0,N,1.530530669073312,0.3092188752376509,0.26306682088232819
0.2821564134092015,0,Y,0.60334638875359525,0.093804952275364797,0.26306682088232819
0.13642727681324029,0.80000000000000004,Y,0.75499958004896917,0.14348385487393781,0
0.35656509043111378,0,Y,1.746111513314736,0.31040723797240899,0.26306682088232819
0.2041448160314486,0,N,0.21138121740555199,0.22590243796732951,0
0.43408678986031002,0,N,0.61781177007715404,0.27933512880902323,0.26306682088232819
0.3036127033080111,0,Y,0.3266376427900361,0.145990731160761,0.13153341044116409
0.52710538768751936,0,Y,1.7633766458622091,0.22339638211545779,0.26306682088232819
0.43408678986031002,0,N,0.12832193109608561,0.20305504002279651,0.39460023132349231
0.17810580987968519,0,N,1.0382410788683289,0.2008478462482596,0.26306682088232819
0.32816961313439441,0,Y,1.4400053795000736,0.14364018502469739,0.65766705220582056
0.73645924519729167,0.80000000000000004,N,0.71720293852612205,1.0252679486533298,0.13153341044116409
0.95499093769268195,0,N,1.6037908260990772,0.62380003873334677,0.13153341044116409
0.051603617454608099,0.80000000000000004,N,0.45355969827416431,0.098999797218307206,0.13153341044116409
0.98021758142342119,0,N,1.976624364083704,0.4419114000244439,0
0.27905579348162779,0,Y,1.5538619292725999,0.2482580224509327,0.52613364176465638
0.47749546884634098,0,N,1.3532130915587208,0.34912535337385359,0.39460023132349231
0.063748745710914101,0.40000000000000002,Y,0.64300953109238546,0.15159586816445181,0.26306682088232819
0.74414878261767436,0.80000000000000004,Y,0.72233581576996542,0.53239135319634334,0.39460023132349231
0.3445408863519831,0,N,1.8081726654448429,0.30076585934729277,0.26306682088232819
0.13937286574443519,0,N,1.8679006915550209,0.1060945457539499,0.26306682088232819
0.1444888886249317,0,Y,0.27484224514761613,0.14035844521867491,0.65766705220582056
0.15503099637868209,0,Y,0.64394278150035678,0.089143390050900995,0.26306682088232819
0.58142824881860955,0,Y,0.87305575665736801,0.49070900631510878,0.52613364176465638
0.48933983696967231,0,N,1.2206915336267634,0.24997847454423999,0
0.8217914062240459,0,Y,1.8515688094155192,0.2560655052044471,0.39460023132349231
0.39616620814608428,0.40000000000000002,Y,1.0307750756045566,0.2051528921937964,0.39460023132349231
0.75432191660004344,0,Y,1.7843747800415688,0.17137744986519959,0
0.074290853464664394,0.40000000000000002,N,0.76013245729281254,0.041856502845940398,0.52613364176465638
0.54459288407903461,0,Y,1.0004444373454819,0.55347973860484834,0.13153341044116409
0.17467652423978869,0,N,1.5939916968153762,0.41194725097056878,0
0.27771632567291599,0,N,1.8921652021622803,0.2471839985144163,0.65766705220582056
0.1506808266202963,0.80000000000000004,N,0.89218739002078429,0.14532327003521339,0
0.3478771533940524,0.40000000000000002,N,0.8366589907464782,0.35017938853155162,0
0.58911778623899214,0,Y,0.93231715756356015,0.33113023148751158,0
0.3445408863519831,0.40000000000000002,N,0.4190294331792177,0.45132812864283878,0
0.1128997728028114,0,N,2.0928140398761599,0.098545350840168702,0.13153341044116409
0.64132602457947718,0,N,2.0382188910098256,1.0104452249694733,0.26306682088232819
0.27905579348162779,0.40000000000000002,N,1.115700862729966,0.4968747241456648,0
0.1444888886249317,0,N,0.59588038548982314,0.2634858172458463,0
0.17237276363360149,0,Y,1.9514266030684728,0.1219477357368975,0.13153341044116409
0.093018597827209296,0,Y,1.3308150817674045,0.19853474177998279,0.13153341044116409
0.19432205210089529,0,N,0.67474004496341755,0.2164510273259847,0
0.1240247971029457,0.40000000000000002,Y,0.85905700053779477,0.17722468976458011,0.26306682088232819
0.3445408863519831,0,N,0.29164075249110361,0.30076585934729277,0.39460023132349231
0.18846808167763629,0.40000000000000002,N,0.33317039564583678,0.2108183684589206,0
0.46509298913604641,0,Y,0.18991645802220669,0.44424479161152158,0.13153341044116409
0.15503099637868209,0,N,1.0116434422411404,0.1275014090936302,0.39460023132349231
0.15503099637868209,0,N,1.519331664177654,0.1275014090936302,0
0.15503099637868209,0.80000000000000004,Y,0.37516666400455573,0.1275014090936302,0.13153341044116409
0.46509298913604641,0,N,1.347613589110892,0.39742801363377372,0.13153341044116409
0.15472093438592471,0,Y,0.69853793036669154,0.12728831976122559,0
0.50775751933945978,0,N,1.976624364083704,0.43163768980670381,0.39460023132349231
0.43408678986031002,0,N,0.71440318730220775,0.22339638211545779,0.39460023132349231
0.40308059058457357,0.80000000000000004,N,0.46195895194590819,0.41731737065315111,0.39460023132349231
0.96880419947002261,0.40000000000000002,N,0.54221848703145981,0.34321717753307479,0.13153341044116409
0.093018597827209296,0.40000000000000002,N,0.91971827705594456,0.070674728027548997,0.13153341044116409
0.17467652423978869,0.40000000000000002,N,0.2407786052566552,0.1095895986473638,0.13153341044116409
0.41002597922233852,0.80000000000000004,N,0.48669008775715378,0.2118207907996694,0.13153341044116409
0.20588116319088989,0.80000000000000004,N,0.35603503064113928,0.37952761469183283,0
0.43408678986031002,0,N,1.6793841091447717,0.37256637329829878,0.78920046264698474
0.88228140039108005,0,Y,1.2962848166724577,0.39907798290624719,0
0.58911778623899214,0,N,0.84645812003017928,0.93195384023395222,0.26306682088232819
0.1240247971029457,0,N,0.33317039564583678,0.17722468976458011,0.13153341044116409
0.20895697815904291,0,Y,1.5533953040686146,0.2305326744936449,0
0.15217222480545919,0,Y,0.95378191694690539,0.087768042732195198,0.13153341044116409
0.0265537090597406,0.40000000000000002,N,1.1385654977252688,0.091947785885138397,0
0.3445408863519831,0,N,1.1810283912879731,0.36099078198251028,0.39460023132349231
0.27905579348162779,0,N,1.3140165744239165,0.18610388431974759,0.39460023132349231
0.29951988500361387,0,Y,0.93558353399146044,0.15865660594210479,0.13153341044116409
0.51134803721559008,0,N,0.33690339727772289,0.2895582703997524,0.39460023132349231
0.068213638406620106,0,N,1.7190472514835613,0.051526596694359203,0
0.51494165571164785,0,N,1.8557684362513911,0.38589732248533132,0.39460023132349231
0.32629683869813991,0,Y,1.4465381323558739,0.10075761639440579,0.26306682088232819
1.1570273321733806,0,N,1.670051605065056,1.1427608717735429,0.26306682088232819
0.23014041350422601,0,N,1.5879255691635614,0.1138567554151402,0.13153341044116409
0.1240247971029457,0,N,1.7153142498516754,0.049364750597141897,0.39460023132349231
0.32816961313439441,0.40000000000000002,Y,0.67334016935146013,0.34523843091360229,0.13153341044116409
0.17731515179815391,0,N,1.7045818701600028,0.20008707929322711,0
0.61826361355818449,1.2,N,0.75453295484498351,0.15582237610963079,0.78920046264698474
0.1567673435381233,0.40000000000000002,N,0.74240069954135335,0.26533947814127989,0.26306682088232819
0.27905579348162779,0.80000000000000004,N,0.9869123064298948,0.25683104559919739,0.13153341044116409
0.1444888886249317,0.80000000000000004,Y,0.59354725946989406,0.10015355251511091,0
0.43408678986031002,0.40000000000000002,Y,0.62247802211701142,0.3192913551372854,0.13153341044116409
0.49919980833935651,0,N,0.81052797932327525,0.42477587021229313,0
0.074290853464664394,0.40000000000000002,N,1.1315661196654825,0.1685018253601723,0.26306682088232819
0.1175755076535925,0,Y,0.1833837051664059,0.1187784701042268,0.13153341044116409
0.15503099637868209,0,Y,0.34296952492953792,0.1275014090936302,0
0.80616118116914715,0,N,1.0247089479527418,0.67090635566398071,0
0.77881681402787517,0,Y,1.1810283912879731,0.55621805213299169,0
0.15472093438592471,0.80000000000000004,Y,0.61501201885323942,0.12728831976122559,0.13153341044116409
0.27905579348162779,0,N,0.105457296100783,0.1239497461885624,0.26306682088232819
0.34106819203310068,0.80000000000000004,N,1.0125766926491122,0.25536134826106849,0.39460023132349231
0.81168028464022823,0,Y,1.8464359321716757,0.33748658856679919,0.39460023132349231
0.26738195945431309,0.40000000000000002,Y,0.46475870316982282,0.17908357160970509,0.13153341044116409
0.0122784549131916,0,N,1.4003422371612833,0.029390142927803599,0.39460023132349231
0.4960991884117828,0,Y,0.2995733809588616,0.42228972855424429,0
0.16495298014691781,0.40000000000000002,Y,0.4302284380748761,0.13432056607056261,0.39460023132349231
0.26704399188220751,0,N,1.1227002407897528,0.1020636742522071,0.13153341044116409
0.70916138735493328,0.80000000000000004,N,0.90105326889651405,0.52330704990329946,0.52613364176465638
0.1012042344360037,0,N,1.1716958872082579,0.1268535638219232,0.13153341044116409
0.1271254170305193,0,N,1.5785930650838458,0.12643588784661119,0.26306682088232819
0.58911778623899214,0.40000000000000002,N,0.73306819546163826,0.4258413914593121,0.13153341044116409
0.29225203189338128,0,N,1.1786952652680445,0.15516006134877899,0.13153341044116409
0.2752110247714365,0.40000000000000002,N,0.70553730842647788,0.1224082980846745,0
0.35269241614157421,0,N,1.3345480833992904,0.46113232631333101,0
0.2204168694113551,0,Y,0.62341127252498307,0.30203880146705159,0.65766705220582056
0.54459288407903461,0.40000000000000002,N,1.147898001804984,0.34579035988097878,0
0.31936075192015762,0,N,1.8646343151271203,0.1401085854834436,0.13153341044116409
1.1796649582645955,0,N,0.067194029373950304,0.6468087640233442,0.26306682088232819
0.54459288407903461,0,Y,1.4115412420569418,0.13810098115710939,0.39460023132349231
0.1557658433015171,0,N,2.1040130447718184,0.1017499697607496,0
0.13952789674081389,0,N,0.090991914777224306,0.16372838564232139,0.13153341044116409
0.1444888886249317,0,N,2.0755489073286864,0.2107169328649163,0
0.61826361355818449,0.40000000000000002,N,0.95098216572299077,1.0408479337974259,0.39460023132349231
0.89917977899635648,0.40000000000000002,N,1.1805617660839876,0.51284091039693336,0.9207338730881488
0.24184835435074409,0.40000000000000002,N,0.8226602346269053,0.26218057982299647,0.13153341044116409
0.1984396753647131,0,N,1.3933428591014969,0.26246474865619979,0.13153341044116409
0.19432205210089529,0,Y,0.51142122356839947,0.2164510273259847,0.26306682088232819
0.37207439130883718,0,Y,0.85345749808996574,0.38748337241658293,0.26306682088232819
0.27905579348162779,0,N,1.540796423560999,0.4968747241456648,0.65766705220582056
0.056741344674597599,0,Y,0.23797885403274061,0.065602500817358897,0.13153341044116409
0.3445408863519831,0,Y,1.4297396250123866,0.10001624153822709,0.9207338730881488
0.1240247971029457,0,Y,0.41296330552740279,0.10619135707822749,0
0.88610136414185081,0,Y,1.5398631731530272,0.40074868680749498,0
0.13425684286393871,0,N,1.0349747024404288,0.2405735303551487,0
0.48933983696967231,0,N,0.1791840783305341,0.27779368070513533,0
0.037554708562771898,0,N,1.0769709707991475,0.065610332241895997,0.13153341044116409
0.3117983399168055,0,N,1.4656697657192903,0.1265047297975421,0.39460023132349231
0.018572713366166099,0,Y,1.5132655365258385,0.11322367797256019,0.39460023132349231
0.168034996354926,0,N,0.36723403553679779,0.15923836890771789,0.13153341044116409
0.27905579348162779,0,Y,1.3494800899268351,0.14881138652403739,0.26306682088232819
0.15217222480545919,0,N,0.15865256935516031,0.12553661655476539,0
0.475430455974577,0,N,1.41060799164897,0.27035837707962218,0.13153341044116409
0.43408678986031002,0,N,2.0279531365221386,0.69887572901076334,0.26306682088232819
0.48320060951307647,0,Y,0.92765090552370277,0.35304643576208578,0.39460023132349231
1.5745568116204471,0.80000000000000004,Y,1.0797707220230623,0.15412780500979381,0.26306682088232819
0.15503099637868209,0,Y,1.2104257791390769,0.1115188887283271,0.78920046264698474
0.88246743758673452,0,N,1.6555862237414971,0.62745530019729123,0
0.20464091521986039,1.2,Y,0.64254290588839968,0.10086390001312361,0.39460023132349231
0.21433965435331079,0,N,2.040552017029754,0.23571185658751309,0.26306682088232819
0.67475690863857618,0,N,1.508599284485981,0.40385656898879391,0.39460023132349231
0.43718740978788367,0,Y,0.74053419872541038,0.38799778513117689,0.13153341044116409
0.32816961313439441,0,N,0.51795397642420016,0.26145732912074648,0.13153341044116409
0.3445408863519831,0.40000000000000002,Y,0.33177052003387952,0.36099078198251028,0
0.184499288170342,0,Y,1.0438405813161582,0.12924028368084861,0.13153341044116409
0.047377472493325197,0,N,0.51655410081224284,0.075061742883240801,0
0.18541707166890381,0.40000000000000002,Y,0.91878502664797279,0.1731758432788999,0.26306682088232819
0.74414878261767436,0.80000000000000004,Y,1.2267576612785784,0.58233667339916884,0
0.1444888886249317,0,Y,1.2594214255575822,0.084071610350684403,0.39460023132349231
0.52617520170924725,0.40000000000000002,Y,0.49835571785679789,0.3042533045711564,0.39460023132349231
0.20245807879084851,0.40000000000000002,Y,0.7717980873924567,0.16009714054695759,0.13153341044116409
0.16495298014691781,0,N,2.095613791100075,0.2045879854371869,0.52613364176465638
0.71190233537090841,0,N,0.444227194194449,0.32456078507581931,0.26306682088232819
0.17731515179815391,0.40000000000000002,N,0.71440318730220775,0.14281691584335929,0.13153341044116409
0.30695827220986299,0.40000000000000002,N,0.86092350135373819,0.23191823995674671,0.52613364176465638
0.57671530652869762,0,N,1.002777563365411,0.2084793829971737,0.13153341044116409
0.2997679345978197,0,N,0.86512312818960979,0.19855957858351481,0
0.60789514052037819,0,Y,1.7563772678024228,0.52959605673156807,0.13153341044116409
0.064926981283391999,0,Y,0.045262644786619198,0.091947785885138397,0
0.43408678986031002,0.40000000000000002,N,0.4666252039857659,0.29405582021891069,0.26306682088232819
0.095074308839190602,0,N,1.8930984525702521,0.13749818522273949,0
0.1916834245425301,0,N,1.1982935238354468,0.2139121540760528,0
0.8460475559174544,0,N,1.6765843579208568,0.42158959920062761,0.26306682088232819
0.062012398551472801,0.80000000000000004,Y,0.48342371132925338,0.1115188887283271,0.39460023132349231
0.077515498189341003,0,N,1.6663186034331698,0.1182993360925475,0.13153341044116409
0.27905579348162779,0,N,0.68873880108299035,0.29798137770687833,0.13153341044116409
0.49974551744660939,0.40000000000000002,Y,0.55761711876299036,0.42521346038142788,0.52613364176465638
0.071221239736366501,0.40000000000000002,N,0.76153233290476985,0.090717953892831493,0.39460023132349231
1.0342427830414644,0,Y,0.90525289573238565,0.56907299987815985,0
0.29225203189338128,0,N,0.91738515103601559,0.25883917202050077,0.52613364176465638
0.62012398551472858,0,Y,1.0102435666291831,0.65226010676612545,0.13153341044116409
0.40644786382591858,0.40000000000000002,N,0.82172698421893364,0.2334835552592239,0.39460023132349231
0.15503099637868209,1.2,Y,0.94071641123530381,0.089143390050900995,0.65766705220582056
0.92771788480974438,0.40000000000000002,N,0.96171454541466361,0.49032183560299369,0.13153341044116409
0.27905579348162779,0,N,1.1511643782328844,0.29798137770687833,0.26306682088232819
0.091573708940959897,0,N,1.1441650001730981,0.14707355612675729,0.26306682088232819
0.15503099637868209,0.40000000000000002,N,1.202026525467333,0.089143390050900995,0.13153341044116409
1.3203245812789739,0,N,1.6331882139501803,1.0831773801004121,0.39460023132349231
0.32816961313439441,0,Y,1.562261182944344,0.1724399131273994,0.26306682088232819
0.49854557753463841,0,N,0.1189894270163703,0.3180988156427742,0.13153341044116409
0.15503099637868209,0.80000000000000004,N,0.65747491241594391,0.2127413934002543,0.39460023132349231
0.42478493007758911,0,N,1.1586303814966563,0.66412590829976015,0.13153341044116409
0.45188434824458268,0.40000000000000002,N,0.4736245820455523,0.2636383435618308,0.39460023132349231
0.1240247971029457,0,N,1.3709448493101799,0.2482580224509327,0
0.54846245774864655,1.6000000000000001,N,0.73073506944170918,0.36645823508433939,0
0.43718740978788367,0,N,1.6387877163980098,0.48930807634291512,0.13153341044116409
0.158435477059158,0,Y,1.5491956772327429,0.15154119736268329,0
0.035099017580133597,0,N,2.1194116765033484,0.1442006912665669,0
0.018603719565441799,0,N,0.77973071586021481,0.039420034794955497,0
0.26943146922643929,0,Y,0.67007379292355973,0.36099078198251028,0.52613364176465638
0.49974551744660939,0,N,1.863234439515163,0.42521346038142788,0
0.1085216974650775,0,N,1.7055151205679742,0.1115188887283271,0
0.058235843479688097,0,N,1.8170385443205723,0.17853350726721839,0
0.077515498189341003,0,N,1.4241401225645576,0.092872639830472004,0
0.61826361355818449,0,N,1.0373078284603574,0.34671021663160778,0.78920046264698474
0.45250447223009738,0.40000000000000002,Y,0.81379435575117554,0.096564597112247297,0.26306682088232819
0.66278851571814201,0.40000000000000002,Y,1.0293751999925995,0.41686986067960258,0.26306682088232819
0.36423912475185849,0,N,1.3662785972703226,0.379944321062202,0
0.50775751933945978,0,N,1.9364945965409284,0.64763583703945748,0.13153341044116409
0.1563797660471766,0,N,2.0470847698855548,0.1730084745487927,0.13153341044116409
0.36091215956957201,0,N,0.28837437606320332,0.21390372597155091,0.65766705220582056
0.15503099637868209,0,N,0.40363080144768743,0.1275014090936302,0.13153341044116409
0.1175755076535925,0,N,0.63041065058476964,0.11133242623934859,0.26306682088232819
0.41002597922233852,0,N,1.2720203060651978,0.42915430779349178,0
0.74414878261767436,0.40000000000000002,Y,0.69013867669494777,0.53239135319634334,0.39460023132349231
0.15503099637868209,0,N,1.5221314154015682,0.14881138652403739,0.52613364176465638
0.17313861675571221,0,N,1.9327615949090424,0.1960684397307613,0.13153341044116409
0.15813161630625569,0,Y,1.2668874288213543,0.090635089962729398,0
0.1506808266202963,0.40000000000000002,N,0.3201048899342353,0.174459674808015,0
0.14535706220465239,0.40000000000000002,N,1.2071594027111765,0.1057012590721963,0.13153341044116409
0.46171331341499111,0,Y,1.2122922799550195,0.34823853777627162,0.13153341044116409
0.80587282351588285,0,Y,1.0144431934650551,0.44699720170383178,0.26306682088232819
0.059135023258684499,0.40000000000000002,N,0.98644568122590925,0.1441970366017829,0
0.13425684286393871,0,N,0.13205493272797161,0.18034047795541169,0.13153341044116409
0.68270999875280247,0,N,1.7447116377027785,0.38116020566033348,0.26306682088232819
0.093018597827209296,0.40000000000000002,N,0.033597014686974999,0.12935439872410351,0
0.15503099637868209,0.40000000000000002,N,0.76946496137252796,0.17864538476060551,0
0.15503099637868209,0,Y,0.48295708612526772,0.089143390050900995,0.13153341044116409
0.58911778623899214,0,Y,0.44236069337850609,0.46146795879349239,0.39460023132349231
0.27905579348162779,0.40000000000000002,Y,0.48389033653323921,0.2482580224509327,0.26306682088232819
0.71190233537090841,0.40000000000000002,Y,0.2370456036247689,0.35705269421528329,0.39460023132349231
0.1240247971029457,0,N,0.70180430679459183,0.26373388694118338,0
0.33323602609604969,0,N,1.566460809780216,0.33663363455721579,0.52613364176465638
0.18541707166890381,1.2,Y,0.49088971459302561,0.1731758432788999,0.26306682088232819
0.18541707166890381,0,N,0.83152611350263483,0.1297922126482251,0.26306682088232819
0.18603719565441859,0,N,0.1315883075239859,0.10583163364449009,0.26306682088232819
1.0342427830414644,0,N,1.9061639582818533,1.0246182387567331,0
0.25633445065236821,0,Y,1.3830771046138102,0.067405518500785896,0.13153341044116409
0.48320060951307647,0,N,0.81939385819900501,0.2057943231558825,0.39460023132349231
0.18913781558199219,0.40000000000000002,N,0.50348859510064137,0.2114627828208305,0
0.27751788599755128,0.80000000000000004,Y,0.27950849718747361,0.1480715033677705,0.39460023132349231
0.27905579348162779,0,N,1.841769680131818,0.1239497461885624,0.26306682088232819
0.094407675554762205,0,Y,1.1045018578343078,0.066681671118571095,0.52613364176465638
0.13547538649547511,0,Y,1.6075238277309636,0.079735238706999195,0.26306682088232819
0.62809877996844798,0.40000000000000002,Y,0.49975559346875531,0.52813075990817904,0
0.37207439130883718,0,N,1.3933428591014969,0.27667140027647119,0.26306682088232819
0.52617520170924725,0.40000000000000002,N,1.3914763582855538,0.3347144880356529,0.13153341044116409
0.32816961313439441,0,Y,0.25991023862007162,0.2156395425739501,0.13153341044116409
0.1212900503268257,0,N,0.45449294868213591,0.20316729044116161,0
0.1240247971029457,0,N,0.29350725330704669,0.18610388431974759,0
0.52617520170924725,0.80000000000000004,N,0.63321040180868426,0.53575834365232677,0.26306682088232819
0.30075703235471579,0,N,0.86698962900555288,0.18523489453611189,0.13153341044116409
0.93837161488088738,0,Y,2.020953758462352,0.46600645577523031,0.26306682088232819
0.74414878261767436,0.80000000000000004,N,0.74380057515331077,0.66557882401388091,0.9207338730881488
0.73080371444939729,0.40000000000000002,N,1.0919029773266922,0.36614609687778937,0.78920046264698474
0.40616880803243688,0,N,2.013021129994593,0.350180954816459,0.52613364176465638
0.35058089397089659,0,N,1.1656297595564431,0.25461437953022042,0.13153341044116409
0.27905579348162779,0,N,0.94351616245921843,0.29798137770687833,0.13153341044116409
0.35058089397089659,0,Y,0.43442806491074798,0.22911705127731979,0.52613364176465638
0.56761808766119648,0,N,1.2780864337170128,0.23963853285041459,0.39460023132349231
0.93126809462681603,0,N,0.35136877860128168,0.51402755767679287,0.13153341044116409
0.15472093438592471,0,N,0.93698340960341764,0.22302345713750071,0.13153341044116409
0.12576114426238691,0.40000000000000002,N,0.26364324025195768,0.1881922641963073,0.39460023132349231
0.7728977305861372,0.40000000000000002,N,1.277153183309041,0.38639741488077178,0.26306682088232819
0.1444888886249317,0.40000000000000002,Y,0.63834327905252775,0.1315636062935214,0.26306682088232819
0.49921841205892192,0,N,1.3191494516677602,0.36405518111137941,0.52613364176465638
0.23341466814774381,0.40000000000000002,Y,0.72513556699388015,0.090507251280285694,0.39460023132349231
0.3590207814137521,0,N,0.25337748576427083,0.26769986949676161,0
0.31384474906900411,0,Y,0.99997781214149639,0.18398238870514519,0
0.32816961313439441,0.80000000000000004,Y,0.4040974266516732,0.2156395425739501,0.13153341044116409
0.062012398551472801,0,Y,0.0209981341793594,0.077697278287459204,0.13153341044116409
1.0342427830414644,1.2,Y,0.8254599858508197,0.42671508009767001,0.13153341044116409
0.20245807879084851,0.80000000000000004,N,0.94538266327516163,0.12444029170456709,0.13153341044116409
0.062012398551472801,0.40000000000000002,Y,0.92065152746391599,0.074226390932616904,0
0.85670128598859752,0,Y,0.70553730842647788,0.2665624483139924,0.39460023132349231
0.54459288407903461,0.40000000000000002,Y,0.66214116445580162,0.34579035988097878,0.26306682088232819
0.13937286574443519,0,N,2.1828727042454124,0.16357921565113859,0.13153341044116409
0.1271254170305193,0,N,0.49135633979701149,0.094737264720257494,0.13153341044116409
0.062012398551472801,0,N,1.1469647513970125,0.1115188887283271,0
0.61075391209360097,0.40000000000000002,Y,0.77693096463630007,0.51422319412022921,0.13153341044116409
0.30695827220986299,0,Y,0.1003244188569395,0.20288364370292741,0
0.49698286509114131,0,N,1.6891832384284724,0.50766963431259782,0
0.54474791507541331,0,Y,1.1618967579245569,0.46129768124855719,0.26306682088232819
0.58911778623899214,0,Y,0.67007379292355973,0.55212281378005357,0.65766705220582056
0.58911778623899214,0.40000000000000002,Y,0.84319174360227889,0.33113023148751158,0
0.34106819203310068,0.40000000000000002,Y,1.0326415764204999,0.14881138652403739,0.65766705220582056
0.3445408863519831,0.40000000000000002,N,0.44609369501039209,0.28194560365472288,0
0.50311899192780962,0,N,0.17125144986277599,0.21377991487886919,0.13153341044116409
0.44028802971545727,0,N,1.1054351082422793,0.32355336554036601,0
0.3445408863519831,1.2,Y,0.38449916808427098,0.2577480681199939,0.26306682088232819
0.18649608740369941,0,N,2.0228202592782951,0.20892092617107491,0.26306682088232819
0.56377952019086031,0.80000000000000004,Y,1.2328237889303937,0.4084268391786538,0.13153341044116409
0.23438206156514679,0.40000000000000002,Y,0.16471869700697539,0.1384213982981701,0.26306682088232819
0.20604859666697889,0,N,0.63181052619672695,0.20329572580357,0.52613364176465638
0.1767353358716976,0,N,0.25431073617224231,0.099585289433699806,0.26306682088232819
0.8602514958056694,0.40000000000000002,N,1.0905031017147346,0.79368153734196933,0.13153341044116409
0.1240247971029457,0,Y,0.94958229011103357,0.061795533472381599,0.26306682088232819
0.1894695819142426,0,N,1.3359479590112475,0.11749732363495299,0.39460023132349231
0.018572713366166099,0,N,2.1203449269113204,0.079149000641650605,0
0.1085216974650775,1.2,Y,1.0723047187592898,0.16745763542189249,0.13153341044116409
0.1093898710447981,0,N,0.60661276518149565,0.18726412851116769,1.0522672835293128
0.55871930846906015,0,N,1.5725269374320312,0.33739775783704989,0
0.39567631019752769,0,N,1.9080304590977968,0.25623615567436031,0
0.2356316113959589,0,N,1.6611857261893266,0.12792012925888049,0.52613364176465638
0.018572713366166099,0.40000000000000002,Y,1.006510564997297,0.033716072672106003,0
0.4928094306686272,0,Y,1.0811705976350197,0.33122860909669671,0.39460023132349231
0.48059608877391458,0,N,1.1777620148600731,0.2457718807928839,0.13153341044116409
0.15503099637868209,0.40000000000000002,N,1.1287663684415676,0.17864538476060551,0
0.83468688450282469,0,Y,0.49835571785679789,0.27729649712452281,0.13153341044116409
0.1140035934970277,0,N,1.0592392130476886,0.174050949032174,0
0.58911778623899214,0.40000000000000002,Y,0.61407876844526776,0.29798137770687833,0.78920046264698474
0.1240247971029457,0,N,1.632721588746195,0.1239497461885624,0.52613364176465638
0.71934382319708523,0.40000000000000002,Y,1.0559728366197882,0.72162415266614643,0.65766705220582056
0.50775751933945978,0,Y,1.5757933138599314,0.43163768980670381,0
0.1240247971029457,0,Y,0.46195895194590819,0.067445943568396394,0.39460023132349231
0.37728343278716081,0.40000000000000002,N,1.3359479590112475,0.24517520082815261,0.65766705220582056
0.16495298014691781,0,N,2.1203449269113204,0.090290880208075006,0
0.71190233537090841,0.40000000000000002,Y,1.1758955140441301,0.25493516959625911,0.39460023132349231
0.062012398551472801,0,N,0.028464137443131601,0.18610388431974759,0
0.31006199275736429,0,N,1.8497023085995761,0.32781537594344651,0.26306682088232819
0.32816961313439441,0.40000000000000002,Y,0.094258291205124606,0.28763890012320281,0.26306682088232819
0.74414878261767436,0,N,0.88332151114505475,0.62118300040803509,0.65766705220582056
0.58911778623899214,0,Y,0.074193407433736702,0.39219401156814582,0
0.10643187963389281,0,N,0.50022221867274097,0.2200450545085485,0
0.38527062972059051,1.2,N,0.77366458820839978,0.41686986067960258,0.13153341044116409
0.58189334180774555,0.40000000000000002,Y,1.3835437298177955,0.46036693508857179,0.26306682088232819
0.68734542554452505,0,Y,0.63834327905252775,0.20909411253083821,0.39460023132349231
0.4000047756164205,0.80000000000000004,Y,0.74613370117323963,0.36992390148949039,0.13153341044116409
0.16427704500270671,0,Y,0.25711048739615688,0.1170792001496675,0.78920046264698474
0.58911778623899214,0,N,1.6891832384284724,0.2482580224509327,0.13153341044116409
1.2092417717537207,0,N,1.6117234545668353,0.5963213600725602,0.26306682088232819
0.74414878261767436,0,Y,1.384943605429753,0.53239135319634334,0
0.43408678986031002,0.80000000000000004,N,0.40269755103971588,0.53239135319634334,0.78920046264698474
1.3565832307120202,0,N,1.4115412420569418,1.1122506113819473,0.13153341044116409
0.40308059058457357,0.80000000000000004,N,0.75173320362106888,0.2818549083000837,0.65766705220582056
0.13952789674081389,0,N,1.0844369740629201,0.16372838564232139,0
0.13425684286393871,0,Y,1.5109324105059101,0.14687769592833419,0
0.54459288407903461,0.40000000000000002,Y,1.3644120964543796,0.27656056697302239,0.65766705220582056
0.068151626008068594,0,N,1.8776998208387219,0.21648033922925219,0
0.58601716631141854,0,Y,0.96218117061864916,0.29648967779504981,0.52613364176465638
0.15935636117764729,1.2,N,0.3481024021733814,0.082898612125018104,0.13153341044116409
0.25816381640963659,0,N,1.9724247372478323,0.17354004181237279,0.65766705220582056
0.1506808266202963,0,N,1.8543685606394336,0.14532327003521339,0.13153341044116409
0.17910110887643629,0,N,0.47082483082163767,0.33658157423029289,0
0.58911778623899214,0.80000000000000004,Y,0.636010153032599,0.41400251510908598,0.26306682088232819
0.2055897049176979,0,Y,0.28090837279943098,0.14192346218116969,0
0.3117983399168055,0,N,0.062994402538078406,0.3294860798446943,0
0.73645924519729167,0,N,0.60894589120142428,0.20476669108662399,0
0.32816961313439441,0,N,0.77273133780042835,0.2270078621869899,0.13153341044116409
0.16086016184252061,0,N,1.644387218845839,0.091947785885138397,0.13153341044116409
0.64132602457947718,0,N,0.26364324025195768,0.32309862082224511,0.39460023132349231
0.43408678986031002,0,N,0.2085814661816372,0.27933512880902323,0.13153341044116409
0.15503099637868209,0.40000000000000002,Y,0.52495335448398661,0.14881138652403739,0.13153341044116409
0.35159169606728569,0,N,1.514665412137796,0.26259400445355968,0.13153341044116409
0.36423912475185849,0.40000000000000002,Y,1.9714914868398608,0.094717126771447793,0
0.15472093438592471,0,N,2.1609413196580816,0.15920003221998391,0
0.62012398551472858,0,N,1.6373878407860525,0.31289837682516242,0.13153341044116409
0.20588116319088989,0,N,0.63041065058476964,0.2275731418685773,0.39460023132349231
0.41002597922233852,0.80000000000000004,N,0.40223092583573022,0.4240001862581424,0.26306682088232819
0.13425684286393871,0,N,1.8641676899231348,0.198410408592332,0
0.27905579348162779,0.40000000000000002,N,0.40129767542775868,0.27588214185312271,0.13153341044116409
0.2318767606636673,0,N,1.502999782038152,0.35095328244580809,0.26306682088232819
0.093018597827209296,0,N,1.976624364083704,0.2482580224509327,0
0.48752287369211411,0,N,1.0387077040723147,0.41541299196071529,0.26306682088232819
0.062012398551472801,0.40000000000000002,N,0.53615235937964512,0.1239497461885624,0.13153341044116409
0.35530623874051881,0,N,1.2206915336267634,0.61915428852794852,0
0.1093898710447981,0,N,2.1063461707917468,0.096133048327755294,1.0522672835293128
0.83716738044488359,0,N,0.27810862157551641,0.57974693318224357,0.13153341044116409
0.27905579348162779,0.80000000000000004,N,0.7466003263772254,0.4968747241456648,0
0.21396757996200191,0,N,1.2967514418764434,0.14696167863337009,0
0.33670561979500457,0,N,1.2990845678963721,0.35345173062812951,1.0522672835293128
0.1240247971029457,0.40000000000000002,Y,0.47455783245352379,0.082513604377775204,0.26306682088232819
0.31936075192015762,0.80000000000000004,Y,0.56135012039487642,0.56151008132518976,0.52613364176465638
0.43718740978788367,0,Y,0.94538266327516163,0.11226473868424131,0.9207338730881488
0.062012398551472801,0,Y,1.4880677755106071,0.044392392696048701,0.26306682088232819
0.86001894931110134,0,N,1.5417296739689703,0.42831119900332648,0.39460023132349231
0.20895697815904291,0,N,0.26224336464000048,0.32032376064626189,0
0.1240247971029457,0,N,0.059261400906192203,0.2482580224509327,0
0.1240247971029457,0,N,0.073260157025765202,0.23271950656438539,0
0.36091215956957201,0,N,1.0499067089679732,0.3622391856387196,0.26306682088232819
0.18153199489965399,0.80000000000000004,N,0.72186919056597965,0.072678230179125794,0.13153341044116409
0.40178143083492018,0,Y,1.6686517294530987,0.25990760208234792,0
0.3117983399168055,0.40000000000000002,Y,0.52122035285210055,0.27451194089911279,0.26306682088232819
0.43684014035599539,0.40000000000000002,Y,0.78346371749210086,0.32118372564543102,0.52613364176465638
0.093018597827209296,0.40000000000000002,N,0.35043552819331009,0.1239497461885624,0.52613364176465638
0.15850369069756459,0,Y,1.2967514418764434,0.18198679256310121,0.13153341044116409
0.046509298913604599,0,Y,0.52168697805608621,0.061795533472381599,0.65766705220582056
0.13952789674081389,0.40000000000000002,N,0.3928984217560148,0.1021957642793996,0.65766705220582056
0.093018597827209296,0.40000000000000002,N,1.1609635075165856,0.065939177487458603,0
0.66278851571814201,0.40000000000000002,N,0.81659410697509027,0.52117697701420407,0.65766705220582056
0.43592235685743358,0,N,1.7843747800415688,0.41563779113742788,0.39460023132349231
0.16495298014691781,0.40000000000000002,Y,0.88472138675701217,0.13432056607056261,0.13153341044116409
0.43408678986031002,0,N,1.6313217131342377,0.93195384023395222,0
0.58911778623899214,0,Y,1.9439605998047005,0.4258413914593121,0.26306682088232819
0.093018597827209296,0,Y,0.18944983281822089,0.065939177487458603,0.52613364176465638
0.18090877029421171,0,N,1.5594614317204296,0.14528672338737361,0.39460023132349231
0.74724940254524796,0,N,1.1534975042528133,0.4676622426773599,0.9207338730881488
0.43408678986031002,0,N,0.5394187358075454,0.3192913551372854,0.52613364176465638
0.51134803721559008,0.40000000000000002,N,1.1301662440535247,0.86939194593186864,0.13153341044116409
0.15503099637868209,0,N,0.57348237569850624,0.099088031268091806,1.0522672835293128
0.91666727538787163,0,N,1.5286641682573689,0.37957736288389238,0.39460023132349231
0.5580433733248491,0,N,1.0009110625494679,0.31451933253435083,0.13153341044116409
0.61776751436977262,0,N,1.3219492028916746,0.22258661281832171,0.13153341044116409
0.1240247971029457,0,N,1.8310373004401452,0.28650677447512057,0.26306682088232819
0.158435477059158,0,N,0.1199226774243418,0.2528077071820094,0.13153341044116409
0.084677930222036096,0,Y,1.7983735361611417,0.25262012591809702,0
0.54671060748956746,0,N,0.050862147234448402,0.3966956635620616,0.13153341044116409
0.52617520170924725,0,N,1.7507777653545935,0.66978758073010924,0
0.67104236596534284,0,Y,1.9178295883814975,0.30669022013211489,0.26306682088232819
0.8211929865780242,0.40000000000000002,Y,1.0433739561121724,1.1385045298301273,0.26306682088232819
0.093018597827209296,0,Y,0.53148610733978741,0.12935439872410351,0.52613364176465638
0.54293715303771029,0,N,1.5165319129537391,0.21204342701150969,0.52613364176465638
0.093018597827209296,1.2,N,0.33783664768569438,0.099088031268091806,0.13153341044116409
0.15078934831776139,0,N,1.7377122596429919,0.087102744571519702,0.26306682088232819
0.043284654188927997,0,N,2.11381217405552,0.17834704477823979,0.13153341044116409
0.3036127033080111,0,N,0.41249668032341702,0.145990731160761,0.13153341044116409
0.18681235063631199,0,N,0.73726782229750987,0.2092252329530879,0.39460023132349231
0.74414878261767436,0,N,1.5608613073323869,0.46579761778757428,0
0.37207439130883718,0,N,1.4694027673511767,0.2151091686702995,0.52613364176465638
0.83468688450282469,0,Y,1.7867079060614974,0.41612401072368832,0
0.098847763291047705,0.40000000000000002,N,0.85252424768199431,0.124586179955944,0.26306682088232819
0.48933983696967231,0.40000000000000002,N,0.39896454940782988,0.27779368070513533,0.65766705220582056
0.3445408863519831,0,N,0.78159721667615789,0.18031608866185339,0.26306682088232819
0.43233183898130328,0,Y,0.50255534469266983,0.22255207996536289,0.13153341044116409
0.093018597827209296,0.80000000000000004,Y,0.77273133780042835,0.18610388431974759,0.13153341044116409
0.2821564134092015,0,N,1.917362963177512,0.54950159869498871,0
0.27905579348162779,0,N,1.0279753243806422,0.13525049179559651,0.26306682088232819
1.2092417717537207,0,Y,1.7727091499419243,0.4258413914593121,0.26306682088232819
0.27905579348162779,0.40000000000000002,Y,0.39756467379587251,0.2127413934002543,0.26306682088232819
0.30695827220986299,0.40000000000000002,Y,0.81752735738306193,0.32482899271996601,0.13153341044116409
0.27408860035765492,0,N,1.5015999064261949,0.13307805462900521,0
0.58911778623899214,0.40000000000000002,N,0.90291976971245702,0.16538581341435399,0.13153341044116409
0.074290853464664394,0,N,2.1231446781352346,0.12628671785542839,0.39460023132349231
0.1853860654696281,0,N,1.8207715459524587,0.1483638765504888,0.13153341044116409
0.62012398551472858,0,Y,0.62667764895288358,0.52173636448113969,0.39460023132349231
0.15935636117764729,0,N,0.53661898458363078,0.2285986855579594,0
0.50668470484451933,0.80000000000000004,N,0.46802507959772321,0.58755426676576672,0.13153341044116409
1.1573497966458479,0.80000000000000004,Y,0.63741002864455609,0.71428498909995075,0.13153341044116409
0.093018597827209296,0,Y,0.2263132239330965,0.099088031268091806,0.26306682088232819
0.1444888886249317,0,N,2.0746156569207157,0.0677302615715909,0.26306682088232819
0.1240247971029457,0.80000000000000004,N,0.54688473907131752,0.1093251948379923,0
0.4928094306686272,0,N,0.57861525294234961,0.41965188101516249,0
0.46509298913604641,0,N,1.4437383811319593,0.41114479100300072,0.13153341044116409
0.15813161630625569,0.40000000000000002,N,1.0219091967288272,0.15129752818208619,0.26306682088232819
0.66355126822032506,0,N,1.8842325736945229,0.27809947918706007,0.65766705220582056
0.16495298014691781,0,N,2.0909475390602168,0.1881922641963073,0
0.30695827220986299,0.40000000000000002,Y,0.76386545892469859,0.23191823995674671,0
0.051625321794101099,0,N,2.2160030937284025,0.13215409570361869,0.13153341044116409
0.34612840375490089,1.2,N,0.83105948829864906,0.53328391183858581,0
0.15503099637868209,0.40000000000000002,Y,0.5646164968227767,0.099088031268091806,0.13153341044116409
0.15472093438592471,0.40000000000000002,Y,0.2034485889377938,0.1485627947337311,0
0.062012398551472801,0,N,1.2323571637264077,0.1115188887283271,0
0.062012398551472801,0,Y,0.85905700053779477,0.063571402217413295,0.39460023132349231
0.63124900981486276,0.40000000000000002,N,0.42182918440313227,0.3979028963007043,0
0.60916019345082817,0,Y,1.7185806262795758,0.2329613111200928,0.13153341044116409
0.37827563116398438,0,N,1.7405120108669063,0.19654578370254641,0
0.15935636117764729,0,Y,1.9164297127695404,0.11412004044957789,0.39460023132349231
0.088975389441653202,0.40000000000000002,N,0.29164075249110361,0.19205076977323829,0
0.031006199275736401,0.40000000000000002,N,0.39989779981580131,0.087388479689630497,0.13153341044116409
0.37016440943345169,0,Y,0.85205762247800831,0.48214664882121372,0.39460023132349231
0.057590914534752798,0,N,1.7162475002596471,0.14172081474814779,0.26306682088232819
0.47972481457426641,0,N,1.363012220842422,0.20440085168324809,0
0.85670128598859752,0,N,2.0330860137659821,0.42671508009767001,0.65766705220582056
0.13425684286393871,0,N,0.57208250008654882,0.1416192299841523,0.26306682088232819
0.43408678986031002,0,Y,1.1287663684415676,0.55902886227685,0
0.3297664323970948,0.40000000000000002,N,0.3882321697161572,0.1924933571370778,0.13153341044116409
0.18913781558199219,0,Y,1.9280953428691845,0.13202976251596771,0.39460023132349231
0.48752287369211411,0.40000000000000002,Y,0.89312064042875594,0.16595004890600309,0.52613364176465638
1.0342427830414644,0,Y,1.0639054650875459,0.51212981704896476,0.13153341044116409
0.58911778623899214,0,N,0.38076616645238492,0.74549135125540111,0
0.47756988372460268,0,N,0.2855746248392888,0.2035368590943171,0.65766705220582056
0.33176013101052459,0,N,0.67194029373950281,0.27233816120260079,0.26306682088232819
0.2480495942058914,0,N,1.4288063746044148,0.22339638211545779,0
0.4928094306686272,0,N,1.3891432322656252,0.35965041502673689,0.26306682088232819
0.047368170633542497,0,N,2.036352390193882,0.093905642019413205,0
0.2954270666992167,0,Y,1.3513465907427782,0.1223337130890831,0.39460023132349231
0.168034996354926,0.40000000000000002,N,1.2925518150405717,0.15923836890771789,0
0.068548505358798098,0,N,0.93931653562334683,0.1037620491868194,0.39460023132349231
0.1093898710447981,0,N,0.3210381403422069,0.1122149904921818,0.13153341044116409
0.1240247971029457,0.40000000000000002,N,0.27250911912768722,0.20682195522514121,0.13153341044116409
0.48933983696967231,0,Y,1.0849035992669056,0.31256274434500098,0
0.1240247971029457,0.80000000000000004,N,0.84832462084612237,0.18610388431974759,0.13153341044116409
0.29455889311949601,0,N,1.4890010259185789,0.25226801015390993,0
0.35159169606728569,0,Y,1.9994889990790068,0.20416009131747889,1.4468675148528052
0.1444888886249317,0,Y,1.5608613073323869,0.14035844521867491,0.13153341044116409
0.52617520170924725,0.40000000000000002,Y,0.13765443517580089,0.38258209401628829,0.13153341044116409
0.58911778623899214,0.80000000000000004,N,0.5632166212108195,0.37256637329829878,0.26306682088232819
0.65113018479046492,0,Y,0.78346371749210086,0.65598935654569657,0.39460023132349231
0.52571630995996632,0,N,1.062038964271603,0.44603759115055258,0.13153341044116409
0.32629683869813991,0.40000000000000002,Y,1.0998356057944505,0.19063865205170591,0.26306682088232819
0.51015429854347416,0,N,1.4222736217486145,0.2363239756463319,0.26306682088232819
0.12576114426238691,0,N,0.3541685298251962,0.087339477347526895,0.13153341044116409
0.31936075192015762,0,N,0.53801886019558809,0.24044226076290781,0
0.58911778623899214,0,Y,0.21278109301750911,0.53239135319634334,0
0.52617520170924725,0.80000000000000004,N,0.750799953213097,0.26769986949676161,0
0.081657926412579407,0,N,0.58421475539017909,0.084332657835254399,0.78920046264698474
0.13022603695809301,0,N,2.1996712115889001,0.13815639780883379,0.52613364176465638
0.33176013101052459,0,N,1.9565594803123163,0.48443558775091877,0.39460023132349231
0.47439484891876738,0,N,0.44702694541836357,0.28237058895960282,0
0.052710538768751897,0.80000000000000004,N,0.74753357678519705,0.060665496204176002,0.52613364176465638
0.40608509129439241,0,Y,1.6210559586465507,0.52535000751754402,1.3153341044116411
0.3036127033080111,0,N,0.61407876844526776,0.2296189337126544,0.13153341044116409
0.184499288170342,0,Y,1.9476936014365869,0.60951850377750161,0
0.46828352704151971,0,Y,1.8828326980825651,0.17121776338963829,0
0.58911778623899214,0,N,1.8291707996242024,0.74549135125540111,0.13153341044116409
0.59367569753252536,0,Y,1.4092081160370131,0.50052938892964438,0.13153341044116409
0.52617520170924725,0,N,1.7181140010755898,0.74424824313387894,0.52613364176465638
0.084677930222036096,0,N,1.3004844435083294,0.185159116180591,0
0.3306408072166705,0,Y,0.9901786828577952,0.3476162005730567,0.26306682088232819
0.1240247971029457,0,Y,0.7862634687160156,0.1239497461885624,0.13153341044116409
0.34106819203310068,0,Y,1.6014577000791486,0.22339638211545779,0.13153341044116409
0.81168028464022823,0,N,2.0134877551985801,0.22487152415826489,0.13153341044116409
0.3445408863519831,0,Y,0.23984535484868369,0.1502036646367424,0.26306682088232819
0.1240247971029457,0,Y,1.8067727898328856,0.1550267779616572,0.13153341044116409
0.52617520170924725,0,N,1.7820416540216399,0.66978758073010924,0.26306682088232819
0.43592235685743358,0,N,0.3518354038052674,0.2038577983303469,0
0.71190233537090841,0,N,0.91971827705594456,0.59532691832633977,0
0.093018597827209296,0.40000000000000002,Y,1.0611057138636315,0.099088031268091806,0.39460023132349231
0.74414878261767436,0,Y,0.14325393762363009,0.53239135319634334,0.13153341044116409
0.74662617793980557,0.40000000000000002,N,0.88892101359288378,0.3114054089684089,0.52613364176465638
0.69731081799174688,0.40000000000000002,Y,0.1292551815040571,0.318178994513035,0
0.1506808266202963,0,N,0.96171454541466361,0.10890282000795801,0.13153341044116409
0.7096016753846488,0,N,1.4241401225645576,0.52361851684488925,0
0.53731882972894685,0,N,1.7507777653545935,0.54648068261854943,0.26306682088232819
0.0918403622547313,0,N,0.91458539981210119,0.084071610350684403,0.13153341044116409
0.2204168694113551,0,Y,1.8231046719723876,0.30203880146705159,0.26306682088232819
0.82476490073458908,0,N,0.77833084024825749,0.3607897754193915,0
0.15935636117764729,0,N,1.8641676899231348,0.1757623763410148,0.13153341044116409
0.83716738044488359,0.40000000000000002,N,0.8903208892048412,0.41731737065315111,0
0.48933983696967231,0,Y,0.97804642755416538,0.2082556280103994,0
0.58911778623899214,0,Y,1.6205893334425647,0.31702434419628422,0.65766705220582056
0.48933983696967231,0.80000000000000004,Y,1.1119678610980801,0.41686986067960258,0
0.41002597922233852,0,N,1.5039330324461233,0.35327369624365279,0
0.43408678986031002,0,N,1.9980891234670493,0.79876636941641432,0
0.61551026306249901,0,N,1.9327615949090424,0.45704924531467428,0.26306682088232819
1.2286516525003319,0.40000000000000002,Y,1.0802373472270479,0.2016473974009996,0.65766705220582056
0.179299548551801,0,N,1.2841525613688278,0.1008189252607819,0.26306682088232819
0.1093898710447981,0,N,1.0727713439632758,0.1122149904921818,0
0.19432205210089529,0.80000000000000004,N,0.54035198621551672,0.18031608866185339,0
0.34416261072081922,0.40000000000000002,N,0.98597905602192359,0.22525727775546381,0
0.51093255414529515,0,Y,1.4390721290921018,0.26036667273021308,0.13153341044116409
0.1085216974650775,0.40000000000000002,Y,0.96871392347444985,0.1115188887283271,0.65766705220582056
0.98021758142342119,0,Y,1.3261488297275466,0.69463713829629836,0
0.066973390435590599,0,N,2.0428851430496828,0.1567671442487874,0
0.31936075192015762,0,N,0.65094215956014356,0.18693095733586079,0
0.18541707166890381,0.80000000000000004,N,0.58234825457423567,0.19245740716920279,0.13153341044116409
0.27905579348162779,0,N,1.2239579100546636,0.2482580224509327,0
0.31700738139512918,0,N,2.0088215031587224,0.27868870065223228,0
0.50775751933945978,0,N,1.2622211767814966,0.28763890012320281,0.39460023132349231
0.093018597827209296,0,N,0.045729269990604997,0.19853474177998279,0
0.43408678986031002,0,N,0.51328772438434245,0.37256637329829878,0.13153341044116409
0.2480495942058914,0,N,0.96918054867843584,0.33527387550258858,0.13153341044116409
0.031006199275736401,0,N,0.30890588503857702,0.082513604377775204,0
0.3445408863519831,0,N,1.4974002795903223,0.22548476199201761,0.26306682088232819
0,0.40000000000000002,Y,0.63367702701266992,0.0369338931369066,0
0.58911778623899214,0.80000000000000004,Y,0.53381923335971604,0.39219401156814582,0.39460023132349231
0.12968032785083999,0,N,0.16285219619103219,0.14280035797433799,0.26306682088232819
0.35058089397089659,0,N,0.61594526926121107,0.15262514110361339,0.78920046264698474
0.15503099637868209,0.40000000000000002,N,0.58374813018619309,0.1205900650621469,0
0.66278851571814201,0.40000000000000002,Y,1.1982935238354468,0.47647393781151709,0.39460023132349231
0.74414878261767436,0.40000000000000002,N,0.96218117061864916,1.0355441201759248,0
0.3117983399168055,0.40000000000000002,Y,0.54361836264341723,0.13707670541265241,0.26306682088232819
0.15503099637868209,0,Y,0.073260157025765202,0.14881138652403739,0.39460023132349231
0.1240247971029457,0,N,1.243556168622066,0.2660164115612676,0
1.0270307410899282,0,N,1.6089237033429209,0.49867938269899481,0.39460023132349231
0.026153729089083599,0,N,1.0485068333560159,0.038926356709135801,0
0.43718740978788367,0,N,1.6495200960896823,0.17561536931470409,0.78920046264698474
0.1551178137366542,0,Y,0.64114303027644237,0.17872891995566789,0.13153341044116409
0.2325464945680232,0,N,1.8609013134952344,0.2109655246552225,0.52613364176465638
0.76275250218311619,0,N,1.4936672779584366,0.15875602774122821,0
0.74414878261767436,0.40000000000000002,Y,0.87258913145338235,0.41400251510908598,0.26306682088232819
0.43730523334513138,0,N,2.0092881283627078,0.2319129444220597,0.52613364176465638
0.17554469781950929,0,N,0.90758602175231484,0.31017602448607551,0
0.1472918490394583,0,Y,0.19458271006206429,0.19459299934797189,0.26306682088232819
0.43408678986031002,0,Y,0.97384680071829322,0.37256637329829878,0.52613364176465638
0.50775751933945978,0,N,1.8231046719723876,0.80963444746402258,0.13153341044116409
0.34106819203310068,0,N,1.8725669435948784,0.25536134826106849,0.13153341044116409
0.89220958539917095,0,Y,1.0513065845799303,1.4801634776353063,0.13153341044116409
0.1240247971029457,0,N,0.3551017802331678,0.082513604377775204,0.39460023132349231
0.26943146922643929,0,Y,0.119456052220356,0.18031608866185339,0
0.27905579348162779,0,N,1.8333704264600741,0.2127413934002543,0.52613364176465638
0.13547538649547511,0,N,2.037285640601854,0.26662084836554051,0
0.63450466073881517,0,N,1.1007688562024216,0.31981688101622258,0.26306682088232819
0.37207439130883718,0,N,0.73260157025765249,0.60564448452148767,0
0.43408678986031002,0,N,0.76946496137252796,0.22339638211545779,0.13153341044116409
0.83623719446661149,0.40000000000000002,Y,0.95984804459872042,0.46322861219942352,0.39460023132349231
0.38527062972059051,0.40000000000000002,N,0.99297843408170983,0.40018072206606631,0
0.1240247971029457,0.80000000000000004,Y,0.50162209428469828,0.10619135707822749,0.26306682088232819
0.27905579348162779,0.40000000000000002,Y,0.36723403553679779,0.074226390932616904,0.26306682088232819
0.39038665260108701,0.40000000000000002,N,1.0018443129574393,0.31640849588768583,0
0.83184671664916721,0,N,1.6644521026172268,0.41475761360445351,0
0.39616620814608428,0,N,1.4138743680768704,0.41066438904639629,0.13153341044116409
0.23438206156514679,0,N,1.9280953428691845,0.2549965530476308,0
0.084113617395217694,0,N,0.344836025745481,0.1200410449095984,0.65766705220582056
0.81168028464022823,0,Y,1.4484046331718172,0.42194783093445321,0
0.2506541149450533,0.40000000000000002,N,1.1394987481332404,0.27065343532218178,0.13153341044116409
0.85670128598859752,0.80000000000000004,Y,1.0919029773266922,0.85378876485414346,0.26306682088232819
0.49974551744660939,1.2,Y,0.88518801196099783,0.19912828917489939,0.52613364176465638
0.25325863568421508,0,N,1.7008488685281169,0.19501149575823529,1.0522672835293128
0.098847763291047705,0,N,0.57114924967857761,0.1004033376653465,0.26306682088232819
0.086569308377856105,0.40000000000000002,N,1.0438405813161582,0.085346342510337403,0
0.46819360906362001,0,N,1.8996312054260529,0.92334785051763624,0.13153341044116409
0.1240247971029457,0.80000000000000004,Y,0.86605637859758167,0.18610388431974759,0.13153341044116409
0.30323132705691952,0,N,0.50022221867274097,0.47258485238639369,0.52613364176465638
0.060251246432610997,0,N,1.9878233689793627,0.048423264197791402,0.39460023132349231
0.27905579348162779,0.40000000000000002,N,0.57348237569850624,0.16538581341435399,0.9207338730881488
0.093018597827209296,0,Y,0.0055995024478292001,0.1189773882874692,0
0.1085216974650775,0,N,1.4274064989924575,0.22339638211545779,0
0.0124024797102945,0,N,1.6313217131342377,0.069254033031523596,0
1.2092417717537207,0,Y,1.4876011503066218,0.9941079783651372,0.13153341044116409
0.37827563116398438,0.80000000000000004,Y,0.43956094215459141,0.51781080699317206,0
0.74557816840428581,0.40000000000000002,N,1.1903608953676887,0.37325404695765169,0.13153341044116409
0.27905579348162779,0,N,1.1352991212973682,0.2482580224509327,0.13153341044116409
0.73645924519729167,0,Y,0.30237313218277628,0.3688669575169643,0.39460023132349231
0.0155030996378682,0,N,1.6910497392444157,0.031606361486807101,0.78920046264698474
0.49974551744660939,0,N,1.1185006139538809,0.36441744043496688,0.52613364176465638
0.38757749094670541,0,N,0.89732026726462766,0.40240037153486702,0
0.13952789674081389,0.40000000000000002,N,1.2911519394286142,0.20475013321760269,0
0.3959522653710818,0,N,1.79417390932527,0.12802171402287599,0.26306682088232819
0.37191315907260331,0.40000000000000002,N,0.72280244097395152,0.38732823562575269,0.13153341044116409
0.1240247971029457,0,Y,0.97291355031032201,0.18610388431974759,0.26306682088232819
0.1240247971029457,0,N,0.54828461468327483,0.10619135707822749,0.13153341044116409
0.31365251063349447,0,N,1.7139143742397178,0.23651908999479909,0.26306682088232819
0.51853217358777814,0,N,1.9276287176651989,0.26402282921410458,0
0.15935636117764729,0,N,0.32150476554619267,0.30491778229688038,0.26306682088232819
0.16743347608897671,0.80000000000000004,Y,0.76246558331274128,0.0791987488337101,0.26306682088232819
0.4960991884117828,0,N,0.59541376028583715,0.42228972855424429,0
0.084144623594493498,0,N,1.8081726654448429,0.091972622688670305,0.13153341044116409
0.15503099637868209,0,Y,1.5557284300885432,0.19421097500055259,0.52613364176465638
0.15472093438592471,0,N,1.7904409076933836,0.22302345713750071,0
0.031006199275736401,0.40000000000000002,Y,0.74053419872541038,0.049364750597141897,0
0.13937286574443519,0,Y,2.0937472902841314,0.1514356595939215,0.13153341044116409
0.52617520170924725,0,N,0.088658788757295395,0.38258209401628829,0
0.33894426738271272,0.40000000000000002,Y,1.1343658708893971,0.1973993343920947,0.26306682088232819
0.1444888886249317,0,N,2.0704160300848429,0.35143398274239479,0
0.12576114426238691,0.80000000000000004,Y,0.40829705348754508,0.2091423690229858,0.13153341044116409
1.0542107753750387,0.40000000000000002,Y,1.0877033504908205,0.474273158346601,0.13153341044116409
0.70515538640850817,0,Y,0.9332504079715318,0.35380675520714472,0.26306682088232819
0.3445408863519831,0,N,0.54035198621551672,0.30076585934729277,0.26306682088232819
0.13425684286393871,0,N,1.685450236796586,0.079149000641650605,0.13153341044116409
0.1772221332003267,0,Y,1.7713092743299672,0.33356834040839961,0.13153341044116409
0.27285455362648059,0,Y,0.86045687614975219,0.2920145780595646,0
0.24684345305406519,0.80000000000000004,Y,0.28744112565523178,0.2224292384776238,0.26306682088232819
0.3036127033080111,0,N,0.57581550171843499,0.1002565543940226,0.52613364176465638
0.17810580987968519,0.80000000000000004,N,0.81892723299501902,0.071500831438719603,0.13153341044116409
0.27905579348162779,0.80000000000000004,Y,0.76993158657651362,0.18610388431974759,0
0.4709221545998849,0,N,1.7979069109571559,0.48259415879476231,0
0.0061392274565957999,0,N,1.6294552123182944,0.035382525228605098,0.52613364176465638
0.43408678986031002,0,N,2.0774154081446299,0.20682195522514121,0.26306682088232819
0.83623719446661149,0,Y,1.4078082404250556,0.1094383402763044,1.183800693970477
0.22621502867591781,0.80000000000000004,N,0.73306819546163826,0.3433870821530321,0.26306682088232819
0.13955270170023451,0.40000000000000002,N,1.0583059626397171,0.1062068707573106,0
0.48933983696967231,0.40000000000000002,N,0.72606881740185181,0.41686986067960258,0.26306682088232819
0.30696137282979058,0.40000000000000002,N,1.2370234157662654,0.089972103936917194,0.13153341044116409
0.40178143083492018,0,Y,1.0480402081520299,0.2417495119806386,0.39460023132349231
0.077515498189341003,0,Y,1.8240379223803589,0.051850892255190698,0.13153341044116409
0.1240247971029457,0,Y,2.0312195129500386,0.1959177034546711,0.13153341044116409
0.71190233537090841,0.40000000000000002,Y,1.0242423227487565,0.59532691832633977,0.13153341044116409
0.0040928183043972,0,Y,0.26270998984398608,0.041856502845940398,0.13153341044116409
0.040828963206289703,0.40000000000000002,Y,0.24171185566462669,0.068760802455677603,0.13153341044116409
0.89917977899635648,0.40000000000000002,N,1.4647365153113192,0.37256637329829878,0.26306682088232819
1.0542107753750387,0,N,1.5104657853019241,0.43472051142948398,0.26306682088232819
0.18603719565441859,0.80000000000000004,N,0.81706073217907593,0.074226390932616904,0.26306682088232819
0.48933983696967231,0,N,1.7386455100509637,0.6254840933488055,0.13153341044116409
0.26355269384375968,0,N,1.4264732485844862,0.20208640468505071,0
0.080430080921260305,0.40000000000000002,Y,0.2925740028990752,0.076229520159215594,0
0.89607915906878277,0,Y,1.1026353570183649,0.44565966897789089,0.13153341044116409
0.52617520170924725,0,N,0.48948983898106829,0.66978758073010924,0.13153341044116409
0.26615721458292152,0,N,1.873033568798864,0.14260591489083119,0.26306682088232819
0.33894426738271272,0,N,2.0176873820344521,0.49403631755343769,0
0.37728343278716081,0,N,1.1460315009890409,0.4088644293477886,0
0.29455889311949601,0,N,1.8011732873850563,0.31289837682516242,0.65766705220582056
0.59221840616656585,0,N,0.45589282429409322,0.71352638510979038,0
0.27270572386995701,0,Y,0.98784555683786635,0.1822851325454668,0
0.18913781558199219,0,N,0.43816106654263409,0.13542434942032011,0.26306682088232819
0.039191835884530797,0,Y,0.26457649065992911,0.0334134813449916,0.26306682088232819
0.031006199275736401,0,N,1.8245045475843444,0.14881138652403739,0.13153341044116409
0.89917977899635648,0,Y,1.4381388786841305,0.37256637329829878,0
0.30695827220986299,0,Y,1.3014176939163009,0.080938294685888798,0.26306682088232819
0.43408678986031002,0,N,1.0307750756045566,0.2482580224509327,0.52613364176465638
0.74414878261767436,0,Y,1.8119056670767288,0.46579761778757428,0.13153341044116409
0.15472093438592471,0.40000000000000002,N,0.29024087687914629,0.098922303407887699,0.65766705220582056
0.16495298014691781,0,N,1.6075238277309636,0.2353299814100851,0.13153341044116409
0.21396757996200191,0.80000000000000004,N,0.40503067705964479,0.29428196192554379,0.39460023132349231
0.55085923695266092,1.2,Y,0.75313307923302608,0.39954697335852601,0.26306682088232819
0.55226691839977937,0,N,0.2925740028990752,0.93501182505320057,0.13153341044116409
0.15503099637868209,0,N,1.4908675267345222,0.14881138652403739,0
0.1175755076535925,0,N,1.4736023941870484,0.11133242623934859,0.13153341044116409
0.1210357994927647,0,N,0.1087236725286833,0.1041371371296486,0.26306682088232819
0.062012398551472801,0,N,0.99204518367373817,0.044392392696048701,0
0.037554708562771898,0,N,0.063927652946049907,0.091264885665503295,0
0.2115614988982048,0,Y,0.88098838512512612,0.16635377748713939,0.39460023132349231
0.80061727273864547,0.40000000000000002,N,0.55061774070320357,0.49975616628034808,0.39460023132349231
0.13642727681324029,0.40000000000000002,N,0.34670252656142397,0.18271362334513949,0.13153341044116409
0.15711461297001161,0,N,0.76619858494462767,0.069260149001162105,0.65766705220582056
0.32034364843719848,0,Y,1.4572705120475469,0.42222506336306648,0
0.039191835884530797,0,N,2.0190872576464094,0.075025494575383295,0.65766705220582056
0.3590207814137521,0.40000000000000002,Y,0.82312685983089096,0.46874372511343548,0.13153341044116409
0.74414878261767436,0,N,0.91178564858818645,1.2427246800598697,0.26306682088232819
0.1240247971029457,0,N,2.1786730774095409,0.10619135707822749,0.13153341044116409
0.43408678986031002,0.80000000000000004,Y,0.95238204133494797,0.3192913551372854,0
0.21396757996200191,0,N,1.1394987481332404,0.34627732531719518,0
0.50572351266697146,0,N,1.5300640438693265,0.51607983841548632,0
0.1444888886249317,0,N,2.14787581394648,0.35143398274239479,0
0.093018597827209296,0.40000000000000002,N,0.48295708612526772,0.099088031268091806,0.13153341044116409
0.59221840616656585,1.2,N,0.62434452293295495,0.37443099818808429,0.52613364176465638
0.055811158696325497,0,N,1.6910497392444157,0.1040603891691851,0
0.47756988372460268,0,Y,1.5239979162175112,0.15256301180228579,0.13153341044116409
0.76497564667118656,0,Y,1.2010932750593617,0.39854216429791839,0.13153341044116409
0.2011434159415573,0,N,0.38683229410419989,0.62012225260073384,0
0.40308059058457357,0,N,0.20998134179359459,0.26068887991116801,0.52613364176465638
0.63124900981486276,0,Y,1.1833615173079022,0.63685979687640892,0
0.15472093438592471,0,N,2.0946805406921025,0.063464820258713195,0.39460023132349231
0.040828963206289703,0,N,0.58608125620612206,0.068760802455677603,0.13153341044116409
0.58911778623899214,0.40000000000000002,N,0.1119900489565837,0.37256637329829878,0.13153341044116409
0.52924481543754509,0,N,1.841303054927832,0.2691766524094717,0
0.15217222480545919,0.40000000000000002,Y,0.394764922571958,0.21995801381869329,0.65766705220582056
0.54367510058047286,0,Y,0.99951118693751062,0.27611902379912112,0.13153341044116409
0.15935636117764729,0,N,1.8940317029782237,0.18280722751460679,0.13153341044116409
0.13425684286393871,0,N,0.2230468475051961,0.056432573949376098,0
0.51134803721559008,0,N,1.5739268130439881,0.52149172569559987,0.13153341044116409
0.7241807902841001,0.80000000000000004,Y,0.40036442501978697,0.90793747165351479,0
0.1240247971029457,0.80000000000000004,Y,0.72700206780982313,0.10619135707822749,0.26306682088232819
0.82853525456651855,0.40000000000000002,Y,1.2113590295470482,0.22937645789198671,0.26306682088232819
0.1240247971029457,0,Y,0.92065152746391599,0.1239497461885624,0.13153341044116409
1.3565832307120202,0,Y,0.4507599470502498,0.51315334694346582,0.39460023132349231
0.1506808266202963,0,N,1.7307128815832054,0.21816424467471959,0
0.20604859666697889,0,N,1.502999782038152,0.1625648597110953,0.26306682088232819
0.2249592776052505,0,N,1.9164297127695404,0.61536290944704974,0
0.16495298014691781,0,N,0.98924543244982377,0.2353299814100851,0.52613364176465638
0.58911778623899214,0.80000000000000004,Y,0.93371703317551735,0.4258413914593121,0
0.093018597827209296,0.40000000000000002,N,0.59121413344996543,0.059309391814332799,0.26306682088232819
0.14572913659596121,0,N,0.33130389482989381,0.28306437858859418,0.26306682088232819
0.58911778623899214,0.80000000000000004,Y,0.54968449029523225,0.27085958824999651,0.13153341044116409
0.15503099637868209,0,N,0.1833837051664059,0.1717605929875527,0.26306682088232819
1.3565832307120202,0,Y,1.1511643782328844,0.74138089756336223,0
0.056741344674597599,1.2,N,0.1791840783305341,0.2107169328649163,0.26306682088232819
0.37486184862372579,0.40000000000000002,N,0.789529845143916,0.39016544885805038,0.13153341044116409
0.51389674679605557,0,N,0.40829705348754508,0.17440895701101281,0
0.15303419714532471,0.40000000000000002,N,1.2729535564731691,0.1050477453408243,0.52613364176465638
0.45029062960180988,0.80000000000000004,Y,0.63087727578875563,0.4449310481559583,0
0.19807690283318699,0.40000000000000002,Y,0.42649543644298998,0.099833433714032499,0.13153341044116409
0.046509298913604599,0,N,0.1791840783305341,0.092872639830472004,0
0.27905579348162779,0,N,0.67753979618733229,0.37256637329829878,0.26306682088232819
0.21704339493015501,0,N,0.56648299763871979,0.19853474177998279,0.13153341044116409
0.15753629728016161,0,N,1.7997734117730988,0.30199904766440139,0.39460023132349231
0.4709221545998849,0.40000000000000002,N,0.3471691517654098,0.2191653990705433,0.26306682088232819
0.83190562842779114,0,N,0.91131902338420079,0.46091312101128779,0
0.092175229206909196,0.80000000000000004,N,1.0242423227487565,0.1093862799493816,0
0.27905579348162779,0.40000000000000002,N,1.3088836971800732,0.2660164115612676,0.39460023132349231
0.41548307029486808,0.80000000000000004,N,0.92905078113565964,0.30650539851303937,0
0.035099017580133597,0,N,1.6397209668059811,0.226805960603924,0.13153341044116409
0.15472093438592471,0,Y,1.1068349838542366,0.17834704477823979,0.26306682088232819
0.2115614988982048,0.80000000000000004,N,0.54221848703145981,0.14551472971889659,0.13153341044116409
0.1240247971029457,0,N,2.0909475390602168,0.18610388431974759,0.26306682088232819
0.32046767323430148,0,N,0.25664386219217122,0.33782766575163881,0
0.13751869502774619,0.80000000000000004,Y,0.80632835248740342,0.1154654791850515,0
0.39616620814608428,0,N,1.9621589827601451,0.3948558008908124,0.26306682088232819
0.58911778623899214,0,Y,0.98177942918605121,0.22913368373133661,0.78920046264698474
0.31825383060601381,0.40000000000000002,Y,1.1646965091484716,0.36491977038027518,0.26306682088232819
0.34106819203310068,0.40000000000000002,Y,1.2127589051590055,1.2782413091105478,0
0.164332856161403,0.40000000000000002,N,1.0331082016244857,0.31289837682516242,0.39460023132349231
0.1463430593416207,0,N,2.0041552511188643,0.2129470242330998,0
0.1271254170305193,0,N,1.6089237033429209,0.17254298959130671,0
0.98021758142342119,0,N,1.9962226226511064,0.34713930411124527,0
0.1444888886249317,0,N,2.1217448025232777,0.093452761926182099,0
0.58911778623899214,0,N,1.6238557098704651,0.33113023148751158,0
0.383565288760425,0,N,1.2528886727017816,0.33205680088774381,0.26306682088232819
0.52988974438248038,0,N,1.3028175695282584,0.33694830865361591,0.39460023132349231
0.86735501605974064,0,N,0.9015198941004996,0.2697658738746439,0
0.1085216974650775,0.80000000000000004,N,0.45589282429409322,0.22339638211545779,0
0.3685892945102443,0.80000000000000004,Y,0.21324771822149499,0.19188571317799449,0.13153341044116409
0.3445408863519831,0.40000000000000002,Y,0.37516666400455573,0.2577480681199939,0
0.78477620552867167,0,N,0.28044174759544521,0.56031388716589459,0.13153341044116409
0.38342266024375671,0,N,1.5487290520287569,0.24278848096922709,1.0522672835293128
0.69232192052828079,0,Y,1.1334326204814251,0.24820655880397469,0.13153341044116409
0.059135023258684499,0,N,1.6229224594624938,0.077081952073830007,0.9207338730881488
0.295482877857913,0,N,0.063461027742064094,0.31378742997261211,0
0.055811158696325497,0,N,1.5048662828540948,0.083176590403587297,0.13153341044116409
0.20895697815904291,0.40000000000000002,N,0.43676119093067678,0.16456373759294529,0.39460023132349231
0.025325863568421501,0,Y,1.9122300859336685,0.084332657835254399,0.26306682088232819
0.61082212573200767,0,N,1.6098569537508924,0.44075839057759619,0.26306682088232819
0.74414878261767436,0,N,0.82126035901494798,0.41400251510908598,0
0.13425684286393871,0.40000000000000002,N,0.55248424151914666,0.099025901966764196,0.26306682088232819
0.52988974438248038,0.40000000000000002,N,1.3266154549315323,0.29946979587890071,0.26306682088232819
0.43408678986031002,0.80000000000000004,N,0.98271267959402298,0.55902886227685,0.13153341044116409
0.46509298913604641,0,N,1.3242823289116037,0.21661593475123739,0
0.17372463392202361,0.80000000000000004,Y,0.56508312202676236,0.14034919667922161,0
0.22634525471287589,0.80000000000000004,N,0.87258913145338235,0.11219694092324869,0
0.73645924519729167,0,Y,0.90431964532441445,0.61501735716247474,0.26306682088232819
0.3445408863519831,0.40000000000000002,Y,1.034508077236443,0.1430340327655259,0
0.1240247971029457,0.80000000000000004,N,0.64440940670434277,0.2482580224509327,0
0.18603719565441859,0,Y,1.0004444373454819,0.1736730268595123,0.26306682088232819
0.8602514958056694,0,Y,1.5454626756008565,0.42842307649671357,0
0.55610548587011566,0.40000000000000002,N,0.23471247760484029,0.31348342153058151,0.13153341044116409
0.63557747523375563,0,N,0.93978316082733238,0.45777227226193751,0.39460023132349231
0.062012398551472801,0.40000000000000002,N,1.167962885576372,0.074226390932616904,0.65766705220582056
0.19749708690673071,0,Y,1.5851258179396468,0.21950602874540931,0.13153341044116409
0.42947306740808039,0,Y,1.0592392130476886,0.27656056697302239,0.39460023132349231
0.68319059484157652,0.80000000000000004,N,0.63974315466448506,0.38141715097014589,0.13153341044116409
0.16495298014691781,0,N,2.166074196901925,0.13432056607056261,0.26306682088232819
0.30695827220986299,0,Y,1.1455648757850552,0.54162072430581254,0
0.61826361355818449,0,N,1.2934850654485428,0.62436531841493426,0.13153341044116409
0.184499288170342,0.40000000000000002,N,0.31030576065053422,0.11484038233699979,0.13153341044116409
0.36592276137253099,0,N,1.0587725878437029,0.19855957858351481,0.65766705220582056
0.16495298014691781,0,N,1.765709771882138,0.3622391856387196,0.13153341044116409
0.1240247971029457,0,N,0.34016977370562329,0.2482580224509327,0
0.1444888886249317,0.40000000000000002,N,0.62947740017679832,0.069999882987437895,0.26306682088232819
0.42781113512690089,0,N,1.406874990017084,0.45950764135436312,0.52613364176465638
0.2055897049176979,0.40000000000000002,N,1.0125766926491122,0.21042963146189819,0.39460023132349231
0.21704339493015501,0,Y,0.87492225747331098,0.1189773882874692,0.39460023132349231
0.77148074727923599,0,N,1.9350947209289708,0.38961545910055922,0.39460023132349231
0.81168028464022823,0.40000000000000002,N,1.1497645026209271,0.32658830359597651,0.39460023132349231
1.0542107753750387,0.40000000000000002,N,0.85439074849793739,1.0438313336210829,0
0.1240247971029457,0,N,1.3928762338975111,0.092872639830472004,0.26306682088232819
0.48320060951307647,0,N,1.5099991600979383,0.41194725097056878,0
0.16495298014691781,0,N,2.0638832772290421,0.2353299814100851,0
0.34106819203310068,0.80000000000000004,Y,0.3882321697161572,0.22339638211545779,0.39460023132349231
0.23361310782310851,0,N,0.69900455557067709,0.2118207907996694,0.26306682088232819
0.55811158696325569,0.40000000000000002,N,0.29910675575487589,0.56648736183599191,0.13153341044116409
0.30945427125155989,0.80000000000000004,Y,0.91691852583203004,0.081538703900399703,0.39460023132349231
0.21704339493015501,0,Y,1.4642698901073334,0.1189773882874692,0.52613364176465638
0.1444888886249317,0,N,0.49088971459302561,0.14035844521867491,0
0.1444888886249317,0,N,2.2104035912805728,0.2218261442032716,0
0.25633445065236821,0,N,0.43629456572669117,0.23003944391779879,0
0.19432205210089529,0.40000000000000002,N,1.6448538440498248,0.18031608866185339,0.13153341044116409
0.17372463392202361,0,N,1.2757533076970835,0.16380050933305829,0.13153341044116409
0.1472918490394583,0,N,1.2906853142246284,0.2140881746656485,0
0.4338356396461765,0,N,1.9873567437753767,0.24812376945886819,0
0.168034996354926,0,N,1.7470447637227071,0.43490585514352859,0.26306682088232819
0.51134803721559008,0.40000000000000002,Y,0.76479870933267036,0.1627196235769475,0.26306682088232819
0.30075703235471579,0,Y,1.0536397105998592,0.39866739250551642,0.39460023132349231
0.39785294538668442,0,Y,1.7386455100509637,0.23409932898282659,0.26306682088232819
0.051625321794101099,0,N,2.1950049595490424,0.079149000641650605,0.39460023132349231
0.15503099637868209,0,Y,1.1152342375259805,0.14881138652403739,0.13153341044116409
0.40308059058457357,0,N,1.3807439785938811,0.41731737065315111,0.52613364176465638
0.54843145154937079,0,Y,0.65467516119202951,0.25306495083180419,0.13153341044116409
0.093018597827209296,0,Y,0.4666252039857659,0.074226390932616904,0.39460023132349231
0.2497270295867087,0.40000000000000002,Y,1.0732379691672616,0.067171396199624395,0.13153341044116409
0.20895697815904291,0,Y,0.36256778349694008,0.088445722002138794,0.26306682088232819
0.13425684286393871,1.2,N,0.60521288956953834,0.198410408592332,0.13153341044116409
0.0918403622547313,0,Y,0.191316333634164,0.1178436963544796,0
0.093018597827209296,0,Y,1.97709098928769,0.27085958824999651,0.26306682088232819
0.44750007166699363,0,N,1.7325793823991489,0.4600575565268587,0.13153341044116409
0.58911778623899214,0,N,1.5099991600979383,0.41400251510908598,0.26306682088232819
0.1052970527404009,0,Y,2.1142787992595049,0.081610305496167504,0.52613364176465638
0.32368921733905048,0,N,2.185672455469327,0.26627111932121228,0
0.16052219427041509,0,N,0.23891210444071209,0.30678740438137059,0
0.2821564134092015,0,N,1.7400453856629208,0.1777285114098002,0.52613364176465638
0.55811158696325569,0,N,0.79232959636783029,0.4045313394439094,0
0.074811757612496796,0.80000000000000004,N,0.7498667028051258,0.11534308520728601,0.39460023132349231
0.074414878261767403,0,Y,0.14138743680768709,0.050359192343362301,0.13153341044116409
0.43408678986031002,0,N,1.7713092743299672,0.44715136888971918,0.13153341044116409
0.36897377138126342,0,N,1.41060799164897,0.48071461690585848,0.26306682088232819
0.4709221545998849,0,Y,1.7759755263698251,0.20087171344684879,0.26306682088232819
0.27270572386995701,0.80000000000000004,Y,0.84225849319430723,0.36492886974973732,0.13153341044116409
0.046509298913604599,0,N,0.32850414360597913,0.074226390932616904,0
0.20245807879084851,0,N,0.92391790389181638,0.18683981447124809,0
0.13425684286393871,0,N,2.1562750676182239,0.198410408592332,0
0.2027402352042578,0.40000000000000002,Y,0.26084348902804311,0.28077834847371719,0
0.3117983399168055,0.80000000000000004,Y,0.67194029373950281,0.16456373759294529,0.13153341044116409
0.33486695217795343,0,N,1.9523598534764444,0.41873806564917648,0
0.22621502867591781,0.40000000000000002,N,0.32430451677010719,0.13713965514893159,0.13153341044116409
0.13425684286393871,0.40000000000000002,N,1.3751444761460521,0.099025901966764196,0.26306682088232819
0.062012398551472801,0.80000000000000004,N,0.51235447397637079,0.074226390932616904,0.13153341044116409
0.43408678986031002,0,N,1.2024931506713188,0.14881138652403739,0.52613364176465638
0.43408678986031002,0,Y,1.5244645414214972,0.31657482042785468,0.39460023132349231
0.44853567872280309,0.40000000000000002,Y,0.78766334432797291,0.1918966771723464,0.26306682088232819
0.15503099637868209,0,N,1.6000578244671912,0.1115188887283271,0.39460023132349231
0.071221239736366501,0,N,1.8347703020720316,0.16357921565113859,0
0.4709221545998849,0.40000000000000002,N,0.31730513871032079,0.24111777706797929,0.52613364176465638
0.60789514052037819,0,N,1.7176473758716042,0.38385854163083988,0.26306682088232819
0.86693333174959053,0.40000000000000002,N,0.51282109918035679,0.43163768980670381,0.26306682088232819
0.19769552658209541,0,N,1.7526442661705366,0.20339656471760961,0.78920046264698474
1.0542107753750387,0,Y,1.4194738705247001,0.474273158346601,0.26306682088232819
0.2141536171576563,0,Y,0.1810505791464771,0.1068647850034225,0.26306682088232819
0.52402957271936623,0.40000000000000002,N,1.2164919067908917,0.5336938309743563,0.39460023132349231
0.098847763291047705,0,Y,1.4670696413312478,0.1731758432788999,0
0.3445408863519831,0.40000000000000002,Y,0.94304953725523277,0.4298192330291894,0.13153341044116409
0.48933983696967231,0,Y,1.002310938161425,0.50031555374728376,0.13153341044116409
0.3445408863519831,0.40000000000000002,Y,1.4194738705247001,0.30076585934729277,0
0.18846808167763629,0,Y,1.3896098574696107,0.17562223113429851,0
0.27429324127287469,0.40000000000000002,Y,0.85485737370192305,0.16284000375983201,0
0.0155030996378682,0,Y,1.4162074940967997,0.0369338931369066,0.26306682088232819
0.21704339493015501,0,Y,1.929495218481142,0.19853474177998279,0.39460023132349231
0.32629683869813991,0,N,1.8902987013463373,0.2452092861711378,0.39460023132349231
0.52988974438248038,0.80000000000000004,N,1.2958181914684721,0.53933245664106766,0
0.2994361682655694,0,N,0.18944983281822089,0.3175912647477746,0.26306682088232819
0.48933983696967231,0.80000000000000004,N,0.64440940670434277,0.41686986067960258,0.26306682088232819
0.15503099637868209,0,N,0.53381923335971604,0.17864538476060551,0.13153341044116409
0.15503099637868209,0,N,0.20064883771387931,0.089143390050900995,0.26306682088232819
0.38953088150107668,0,N,0.72560219219786581,0.12609093224200091,0
0.1085216974650775,0,N,1.7087814969958746,0.18610388431974759,0
0.44958988949817819,0,Y,1.3840103550217813,0.1441498242995736,0.65766705220582056
0.52988974438248038,0,N,0.9901786828577952,0.35470132764426821,0.52613364176465638
0.068213638406620106,0,Y,1.2538219231097529,0.095110189698214595,0.13153341044116409
0.0238623709626067,0.40000000000000002,N,1.5281975430533832,0.0524356386206275,0.52613364176465638
0.82166428080701537,0,N,1.4278731241964435,0.20475013321760269,0.13153341044116409
0.43408678986031002,0,N,1.5057995332620666,1.1184163292125031,0.39460023132349231
0.21924173445880471,0.40000000000000002,N,1.4936672779584366,0.099969402160995702,0.13153341044116409
0.3445408863519831,1.2,Y,1.6378544659900385,0.30076585934729277,0.13153341044116409
0.83468688450282469,0,N,1.1637632587405,0.59461657082832708,0
0.2318767606636673,0,N,0.60521288956953834,0.25258596599011612,0
0.15472093438592471,0,N,1.5319305446852691,0.2027159766328378,0.39460023132349231
0.85670128598859752,0.80000000000000004,N,0.46942495520968042,0.60974665927901572,0
0.093018597827209296,0.40000000000000002,Y,0.78159721667615789,0.099088031268091806,0.13153341044116409
0.31006199275736429,0.40000000000000002,Y,0.912252273792172,0.19044025596343281,0.52613364176465638
0.50747536292605055,0,N,1.9672918600039888,0.1615551280407786,0
0.093018597827209296,0.80000000000000004,Y,0.69760467995872011,0.10619135707822749,0.13153341044116409
0.43408678986031002,0,Y,0.79792909881565977,0.20305504002279651,0.26306682088232819
0.52571630995996632,0,N,1.9887566193873336,0.44603759115055258,0.26306682088232819
0.69336372882394559,0.40000000000000002,N,0.046195895194590698,0.5804621287049696,0.52613364176465638
0.31006199275736429,0.40000000000000002,N,0.78812996953195857,0.27311973737140333,0.13153341044116409
0.85670128598859752,0.40000000000000002,N,0.54781798947928928,0.28209753329074261,0.13153341044116409
0.062012398551472801,0,Y,0.13018843191202861,0.067445943568396394,0.13153341044116409
0.33323602609604969,0,Y,1.9262288420532416,0.23021501699742111,0.13153341044116409
0.71190233537090841,0,Y,1.7540441417824937,0.77662245715029976,0
0.25633445065236821,0,N,1.0391743292763007,0.23003944391779879,0.13153341044116409
0.66278851571814201,0,N,1.7162475002596471,0.41686986067960258,0
0.1901176114791055,0,Y,0.7069371840384352,0.1178436963544796,0.39460023132349231
0.1472515409803998,0,Y,1.2855524369807847,0.29536322060663261,0.26306682088232819
0.59221840616656585,0,N,2.0433517682536686,0.33278773384453969,0
0.85670128598859752,0,Y,0.43396143970676221,0.71143084507365395,0.39460023132349231
0.23438206156514679,0.40000000000000002,Y,0.33503689646177981,0.1273189741944136,0.13153341044116409
0.58911778623899214,0.40000000000000002,N,0.58328150498220732,0.39322977340192389,0.39460023132349231
0.077515498189341003,0,N,1.0242423227487565,0.086657248392852201,0.13153341044116409
0.71190233537090841,0,Y,0.83479248993053523,0.89316964252641362,0.13153341044116409
0.7572768073910211,0,N,0.92718428031971678,0.37888223072498028,0
0.071221239736366501,0,N,1.8837659484905367,0.081610305496167504,0.52613364176465638
0.58911778623899214,0,N,1.5057995332620666,1.2427246800598697,0
0.73645924519729167,0,Y,1.4208737461366574,0.61501735716247474,0.26306682088232819
0.099219837682356496,0,N,1.875833320022779,0.1420309391598169,0
0.68981351900687371,0,N,1.0667052163114608,0.69321025274563897,0.26306682088232819
0.1396488209179893,0,N,1.7605768946382945,0.1364774895580709,0.65766705220582056
0.90538101885150379,0,N,1.0634388398835604,0.5627581120564209,0.13153341044116409
0.34044806804758598,0,N,0.68220604822718967,0.11133242623934859,0.39460023132349231
0.184499288170342,0,Y,1.0844369740629201,0.2069996166846399,0.26306682088232819
0.32585655066842439,0,N,1.2337570393383648,0.1006329848667725,0
0.1240247971029457,0,Y,0.55201761631516089,0.2482580224509327,0
0.6538835352861504,1.2,Y,0.49322284061295452,0.1826961704561712,0.9207338730881488
0.30100508194892162,0,N,1.0737045943712471,0.1660264985264843,0
0.068151626008068594,0,N,1.7503111401506075,0.1399488990078824,0.13153341044116409
0.43408678986031002,0,Y,1.3984757363453402,0.44715136888971918,0.13153341044116409
0.080430080921260305,0,N,1.512332286117867,0.059209970015209397,0.39460023132349231
0.3445408863519831,0,Y,0.52868635611587267,0.30076585934729277,0.52613364176465638
0.093018597827209296,0,N,1.4899342763265504,0.084881379647820401,0.13153341044116409
0.11921263497535139,0,N,1.2001600246513899,0.2061267484812335,0.26306682088232819
0.41002597922233852,0,N,1.1576971310886852,0.30275481742472921,0.13153341044116409
0.093018597827209296,0,N,2.0400853918257686,0.19853474177998279,0
0.18603719565441859,0,Y,0.87772200869722572,0.1407481518206401,0
0.1012042344360037,0,N,1.7839081548375826,0.1268535638219232,0.26306682088232819
0.25566471674801228,0,N,1.5482624268247711,0.25504249740491508,0
0.19432205210089529,0.40000000000000002,Y,0.084459161921423498,0.1080462113335906,0.26306682088232819
0.074290853464664394,0,N,2.0596836503931701,0.15794804848398639,0.52613364176465638
0.46302797626428238,0,N,0.97571330153423641,0.2373199090924642,0.26306682088232819
0.3117983399168055,0,N,1.5081326592819952,0.41194725097056878,0
0.52617520170924725,0,N,0.68547242465508995,0.44640551893380509,0.65766705220582056
0.29455889311949601,0.80000000000000004,N,0.77693096463630007,0.39121262219615388,0.26306682088232819
0.17983595579927131,0,N,0.17171807506676179,0.29798137770687833,0.26306682088232819
0.7241807902841001,0.40000000000000002,Y,1.1534975042528133,0.090471002972428299,0.39460023132349231
0.27905579348162779,0,Y,0.3014398817748048,0.18610388431974759,0.65766705220582056
0.48902977497691491,1.2,Y,0.66120791404783041,0.24982930455305721,0.13153341044116409
0.30695827220986299,0,N,1.2790196841249839,0.13513622758235039,0.26306682088232819
0.60476971563338389,0,Y,0.58234825457423567,0.25453315647002128,0
0.3679257618457436,0,Y,0.77039821178049939,0.14076277047977601,0.65766705220582056
0.54459288407903461,0,Y,1.5701938114121019,0.2304073717010513,0
0.70074010363164341,0,Y,0.90431964532441445,1.035056632644739,0.26306682088232819
0.43408678986031002,0.40000000000000002,Y,0.43769444133864832,0.3192913551372854,0
0.64651336171830787,0,N,1.3154164500358738,0.40708244463311838,0.13153341044116409
0.27905579348162779,0.80000000000000004,N,0.36163453308896848,0.33866413647719651,0.13153341044116409
0.59064019062343087,0,N,1.3284819557474754,0.2488684260548529,0.39460023132349231
0.16887216373537081,0,N,0.11852280181238441,0.1654361582863782,0
0.58911778623899214,0.40000000000000002,Y,0.77553108902434276,0.14881138652403739,0.78920046264698474
0.086817357972061998,0,Y,0.055061774070320299,0.17678075987082001,0
0.1648537603092354,0,Y,1.7969736605491844,0.1566875620584913,0.26306682088232819
0.37759349477991822,0,N,1.8921652021622803,0.24536166331713111,0.13153341044116409
0.080430080921260305,0,N,1.8441028061517468,0.17834704477823979,0.13153341044116409
0.32629683869813991,0.40000000000000002,N,0.3415696493175806,0.28613728040696068,0
0.3445408863519831,0.80000000000000004,Y,0.57954850335032126,0.36099078198251028,0.39460023132349231
0.039191835884530797,0,N,1.4507377591917461,0.093452761926182099,0.26306682088232819
0.179299548551801,0.40000000000000002,N,0.53055285693181564,0.14418070248774839,0.13153341044116409
0.41002597922233852,0,N,0.6962048043467628,0.53008988398737877,0.26306682088232819
0.94651074219076803,0.40000000000000002,N,0.243111731276584,0.52217559552017756,0.13153341044116409
0.094705335067809301,0,N,0.26597636627188648,0.22363945461609019,0
0.43408678986031002,0,N,1.964025483576088,0.74549135125540111,0
0.89917977899635648,0,Y,1.0331082016244857,0.27933512880902323,0.26306682088232819
0.58911778623899214,0,Y,2.0517510219254129,0.18610388431974759,0.13153341044116409
0.1610337965584647,0,N,1.875833320022779,0.2306162096887073,0
0.52246065903601402,0,Y,0.70600393363046388,0.33248066741768989,0.39460023132349231
0.4960991884117828,0,Y,1.0653053406995034,0.31662762660473343,0.52613364176465638
0.4185836902224418,0,Y,0.85625724931388048,0.27001200436009559,0.13153341044116409
0.63557747523375563,0,Y,0.3928984217560148,0.35596539414955158,0.78920046264698474
0.2821564134092015,0.40000000000000002,N,0.71067018567032125,0.12519277972508899,0
0.58911778623899214,0,Y,1.0181761950969412,0.1101376491949696,1.0522672835293128
0.27905579348162779,0,N,1.6229224594624938,0.092872639830472004,0.26306682088232819
0.43408678986031002,0.40000000000000002,Y,1.0270420739726709,0.22339638211545779,0.13153341044116409
0.1444888886249317,0,Y,2.0769487829406441,0.2107169328649163,0.26306682088232819
0.1444888886249317,0.40000000000000002,N,0.28370812402334561,0.1685018253601723,0
0.080430080921260305,0,N,1.5986579488552335,0.15732287705093909,0
0.074290853464664394,0,N,0.62434452293295495,0.14035844521867491,0.26306682088232819
0.077800755222677806,0,N,1.9103635851177252,0.086885925989335394,0
0.1240247971029457,0,N,1.8240379223803589,0.46579761778757428,0.13153341044116409
0.2821564134092015,0,Y,1.2566216743336671,0.10725687832524659,1.5784009252939697
0.25115021413346511,0,N,1.6560528489454831,0.1935623838788896,0
0.50775751933945978,0,Y,1.6947827408763017,0.16164000576576171,0.52613364176465638
0.18293657572684491,0,N,1.6014577000791486,0.093211628635435001,0.78920046264698474
0.38225682715098902,0,N,1.0018443129574393,0.55191845089213309,0.65766705220582056
0.27905579348162779,0,Y,1.335014708603276,0.14881138652403739,0
0.8549556369693736,0,Y,1.5655275593722444,0.60854688503993226,0.39460023132349231
0.1444888886249317,0,N,0.30050663136683331,0.084071610350684403,0
1.2261091441597212,0.40000000000000002,N,0.77973071586021481,0.62963601629839305,0
0.27330724413590629,0,N,0.95518179255886282,0.2283982010898096,0.13153341044116409
0.52617520170924725,0,N,0.88052175992114001,0.60886521380111636,0.13153341044116409
0.1240247971029457,0,Y,2.2188028449523167,0.095263163524172606,0.26306682088232819
0.25633445065236821,0,Y,1.6131233301787926,0.19712538370328739,0
0.062012398551472801,0.80000000000000004,N,0.89965339328455662,0.1239497461885624,0
0.1027173369606596,0,Y,2.0680829040649145,0.1283094629358677,0.26306682088232819
0.58911778623899214,0,N,0.50722159673252754,0.19853474177998279,0
0.36270121726778198,0,N,1.805839539424914,0.4731703446017862,0.13153341044116409
0.58911778623899214,0,N,0.59868013671373754,0.2482580224509327,0.13153341044116409
0.078067408536449098,0,N,1.1366989969093255,0.1636258312733832,0.13153341044116409
0.41002597922233852,0.40000000000000002,Y,0.69713805475473412,0.1175188041136833,0.39460023132349231
0.90846923629936716,0,N,1.22769091168655,0.90359960830991781,0
0.3445408863519831,0,N,0.24171185566462669,0.2577480681199939,0
0.58911778623899214,0,Y,1.6765843579208568,0.4258413914593121,0.13153341044116409
0.047377472493325197,0,N,1.3662785972703226,0.26151759379718431,0
0.4709221545998849,0,Y,1.4428051307239882,0.20087171344684879,0.13153341044116409
0.20154029529228679,0,N,1.5594614317204296,0.18610388431974759,0.13153341044116409
0.1918167511994158,1.2,Y,0.54688473907131752,0.29741781348018947,0
0.18603719565441859,0.40000000000000002,Y,0.46802507959772321,0.2084793829971737,0.39460023132349231
0.17053409601655031,0,Y,1.6093903285469069,0.1208420131772547,0
0.13425684286393871,0.80000000000000004,N,0.54688473907131752,0.13215409570361869,0.13153341044116409
0.43408678986031002,0,N,1.056439461823774,0.1594663752392409,0.65766705220582056
0.56761808766119648,0,N,2.0288863869301097,0.43599979327386801,0.26306682088232819
0.22634525471287589,0,Y,0.60287976354960959,0.2472635807047123,0.13153341044116409
0.1774546796948947,0,N,0.4507599470502498,0.1853635536535071,0
0.098326859143215303,0,Y,0.54968449029523225,0.15519586214666289,0.26306682088232819
0.3117983399168055,0.40000000000000002,Y,1.116167487933952,0.2057943231558825,0.13153341044116409
0.091288451907623205,0.80000000000000004,N,0.42509556083103273,0.15447201476444819,0
0.30075703235471579,0,N,1.950959977864487,0.2656587019224112,0
0.040983994202668399,0.40000000000000002,N,1.3154164500358738,0.068909972446860396,0.26306682088232819
0.66278851571814201,0,N,1.853901935435448,0.30869953991334781,0.9207338730881488
0.047377472493325197,0,N,1.4124744924649133,0.1253419497162718,0.13153341044116409
0.63823160589175865,0,Y,0.2697093679037727,0.4595963974991169,0.13153341044116409
1.1906380521882789,0,Y,1.5673940601881875,0.58737116060158978,0.13153341044116409
0.070892574024043697,0,N,1.0998356057944505,0.163052123487294,0.13153341044116409
0.20154029529228679,0,N,1.5809261911037751,0.27933512880902323,0.26306682088232819
0.446697011105752,0,N,1.4288063746044148,0.2085702275218041,0.39460023132349231
1.1057802860104431,0,N,1.4558706364355898,0.52551148403299941,0
0.0040928183043972,0.40000000000000002,N,0.79979559963160274,0.049306201375602599,0
0.13425684286393871,0,N,1.195493772611532,0.056432573949376098,0.65766705220582056
0.32034364843719848,0,N,0.83385923952256358,0.56308628603702326,0.52613364176465638
0.15503099637868209,0,N,0.58748113181807904,0.22339638211545779,0.13153341044116409
1.1831345519635508,0,Y,1.5473291764167996,0.48640791337433842,0
1.0200915536920181,0,N,1.2799529345329561,0.36084161199132753,0.52613364176465638
1.0342427830414644,0,N,0.13298818313594329,0.44919261104906522,0.26306682088232819
0.055563109102119597,0,N,1.3653453468623509,0.090181091094564403,0.13153341044116409
0.2325464945680232,0.40000000000000002,N,0.8287263622787201,0.14707683786656331,0.52613364176465638
0.32816961313439441,0,N,1.6182562074226361,0.28763890012320281,0.13153341044116409
0.43408678986031002,0.40000000000000002,N,0.85999025094576642,0.3192913551372854,0.13153341044116409
0.056741344674597599,0,N,0.45029332184626403,0.1051791641030564,0
0.1953390554371395,0,N,0.8716558810454107,0.2718766292498811,0
0.72683492094210311,0,N,0.302839757386762,0.72883204664010137,0
0.13359951143929311,0,N,1.082103848042991,0.3955982199369294,0.26306682088232819
0.53731882972894685,0,N,1.4348725022562301,0.80381681780789183,0.26306682088232819
0.1444888886249317,0,N,2.164207696085982,0.11690556627993071,0
0.13425684286393871,0,N,0.90711939654832885,0.13215409570361869,0
0.098847763291047705,0,N,0.61081239201736737,0.124586179955944,0
0.3117983399168055,0.40000000000000002,N,0.88752113798092691,0.27451194089911279,0
0.093018597827209296,0,N,1.4348725022562301,0.099088031268091806,0.78920046264698474
0.93801504358921639,0.40000000000000002,Y,1.7974402857531702,0.77663058691481912,0.39460023132349231
0.15503099637868209,0,N,0.46475870316982282,0.063571402217413295,0.26306682088232819
0.1240247971029457,0,N,0.78299709228811509,0.1239497461885624,0.13153341044116409
0.15503099637868209,1.2,Y,0.65934141323188733,0.10619135707822749,0.13153341044116409
0.63823160589175865,0.40000000000000002,N,1.1245667416056959,0.40210203155250129,0
0.1204900903855117,0,Y,1.2678206792293261,0.072525853033132498,0
0.034106819203309997,0.80000000000000004,N,0.76479870933267036,0.038798518026692097,0.52613364176465638
0.64423440607154125,0,N,1.5977246984472624,0.6493542753378837,0
0.89917977899635648,0,N,1.1716958872082579,0.55902886227685,0.39460023132349231
0.1444888886249317,0,N,2.1651409464939531,0.1504096683945659,0.39460023132349231
0.67475690863857618,0,N,1.1474313766009985,0.2260018597664529,0.26306682088232819
0.4709221545998849,0.40000000000000002,N,1.8081726654448429,0.1721244931810432,0
0.74414878261767436,0,N,2.0298196373380808,0.28650677447512057,0.78920046264698474
0.55380172526392835,0.80000000000000004,N,0.98177942918605121,0.70301519626608711,0.39460023132349231
0.093018597827209296,0,Y,0.34390277533750951,0.1189773882874692,0
0.15503099637868209,0.40000000000000002,N,0.0027997512239144999,0.29798137770687833,0
0.15503099637868209,0,N,0.64627590752028585,0.074226390932616904,0.52613364176465638
0.1506808266202963,0,N,1.5043996576501093,0.36384611936873668,0.39460023132349231
0.73645924519729167,0,N,0.31450538748640611,0.3688669575169643,0.26306682088232819
0.19840246792558219,0.40000000000000002,N,0.017265132547473298,0.15730982467671059,0
0.43408678986031002,0,Y,1.8823660728785792,0.41400251510908598,0.26306682088232819
0.30732724598124439,0,N,1.960759107148188,0.32518401729898122,0
0.1240247971029457,0,N,2.0643499024330283,0.1239497461885624,0
0.1612322362338294,0.80000000000000004,N,0.35650165584512511,0.17749789460343149,0.65766705220582056
0.3117983399168055,0.40000000000000002,Y,0.34296952492953792,0.082102566467070898,0.13153341044116409
0.3445408863519831,0,N,0.28044174759544521,0.36099078198251028,0
0.27905579348162779,0,N,1.5337970455012122,0.13525049179559651,0.65766705220582056
0.98300503873831002,0,Y,1.0676384667194323,0.60943899617220121,0.13153341044116409
0.71190233537090841,0,Y,1.5020665316301802,0.99245055059310483,0.13153341044116409
0.43408678986031002,0.40000000000000002,N,0.94631591368313317,0.38542587072819789,0.26306682088232819
0.34971892163103119,0,Y,1.0811705976350197,0.18280722751460679,0.52613364176465638
0.34863370465638038,0,N,1.3345480833992904,0.13010121828496041,0.52613364176465638
0.4928094306686272,0,N,1.7050484953639884,0.62965712385214545,0
0.46302797626428238,0,N,2.0022887503029212,0.19770684832891811,0.52613364176465638
0.15503099637868209,0,N,0.61921164568911147,0.14881138652403739,0.26306682088232819
0.27905579348162779,0,N,1.6159230814027077,0.18610388431974759,0
0.2325464945680232,0,Y,1.0046440641813541,0.180776352669648,0.26306682088232819
0.26943146922643929,0,Y,1.1758955140441301,0.2061267484812335,0.65766705220582056
0.20895697815904291,0,N,0.36723403553679779,0.095846119849715194,0
0.1772221332003267,0,N,0.65700828721195825,0.2500866227878476,0
0.42478493007758911,0,Y,1.2300240377064788,0.2189212823799726,0.65766705220582056
0.062012398551472801,0.40000000000000002,N,0.26317661504797191,0.1115188887283271,0.13153341044116409
0.81168028464022823,0.40000000000000002,N,0.99531156010163835,0.5064091478871029,0.39460023132349231
0.40308059058457357,0,N,0.1581859441511746,0.1736730268595123,0.26306682088232819
0.33894426738271272,0.80000000000000004,Y,0.51562085040427119,0.22211911406595469,0.26306682088232819
0.32816961313439441,0.40000000000000002,N,0.82172698421893364,0.12306889739062769,0.26306682088232819
0.17467652423978869,0.40000000000000002,N,1.1656297595564431,0.1410033816755539,0.78920046264698474
0.54459288407903461,0.40000000000000002,N,0.54221848703145981,0.18425417642908029,0.39460023132349231
0.42781113512690089,0,N,1.1595636319046283,0.27905379420565229,0.26306682088232819
0.38527062972059051,0,N,1.6187228326266216,0.33342416761192128,0
0.31626323261251149,0,N,1.7703760239219957,0.52173636448113969,0.26306682088232819
0.83276760076765655,0,Y,2.0279531365221386,0.69224012570798144,0
0.84249734610038263,0.80000000000000004,N,0.80492847687544622,0.52494165466668108,0
0.74414878261767436,0,N,1.1129011115060516,0.53239135319634334,0.13153341044116409
0.37016440943345169,0,N,2.0307528877460528,0.240894022081205,0
0.3445408863519831,0,Y,0.42416231042306118,0.18031608866185339,0.52613364176465638
1.1472293732022478,0,Y,0.41622968195530308,0.56648736183599191,0.39460023132349231
0.26351858702455627,0,Y,1.5230646658095397,0.15708040123027131,0.13153341044116409
0.046509298913604599,0,N,0.14372056282761581,0.061795533472381599,0.13153341044116409
0.1052970527404009,0,N,1.9882899941833485,0.10893325068615931,1.0522672835293128
0.39401747853627578,0,N,1.1511643782328844,0.1018802697480478,0
0.65971270074998878,0.40000000000000002,Y,1.2552217987217102,0.55347973860484834,0
0.46171331341499111,0.40000000000000002,N,0.98271267959402298,0.3947181169889506,0.52613364176465638
0.71055666632234138,0,Y,1.8109724166687573,0.6483029998250226,0.65766705220582056
1.1782355724779845,0,N,1.6653853530251983,0.52851681184536015,0.52613364176465638
0.65238283524120477,0.40000000000000002,Y,0.444227194194449,0.41061217954948231,0
0.16495298014691781,0,Y,1.2342236645423508,0.1567671442487874,0.39460023132349231
0.013568312803062201,0.40000000000000002,Y,0.81426098095516153,0.071123655116013804,0
0.20895697815904291,0.40000000000000002,N,0.97804642755416538,0.1439484448114767,0
0.32622862505973321,0,N,0.88145501032911167,0.42930317944469237,0.13153341044116409
0.31936075192015762,0,Y,1.186161268531817,0.5504930570413854,0
0.38527062972059051,0,N,1.9588926063322449,0.31256274434500098,0.52613364176465638
0.54459288407903461,0,Y,1.2906853142246284,0.17271587761108759,0.26306682088232819
0.61826361355818449,0,N,0.99064530806178075,0.91835304253286998,0.39460023132349231
0.15217222480545919,0,N,1.0933028529386497,0.14651916585452621,0.39460023132349231
0.20588116319088989,0,N,0.52821973091188701,0.18958454230901239,0.13153341044116409
0.099002794287426393,0,N,0.13392143354391481,0.1038863823744703,0
0.43408678986031002,0.40000000000000002,Y,0.32150476554619267,0.3192913551372854,0.26306682088232819
0.2480495942058914,0.80000000000000004,N,0.53241935774775873,0.33527387550258858,0.39460023132349231
0.50775751933945978,0,N,0.89312064042875594,0.64763583703945748,0.26306682088232819
0.54459288407903461,0.40000000000000002,N,1.0247089479527418,0.46117334806090621,0.26306682088232819
0.20588116319088989,0,Y,0.6500089091521718,0.2106893364165475,0
0.32629683869813991,0.80000000000000004,Y,0.81192785493523256,0.34343645742011358,0
0.068151626008068594,0.40000000000000002,Y,0.88938763879686977,0.1189028032918777,0
0.48096196192536828,0,N,1.0695049675353754,0.090866005109080397,0.13153341044116409
0.41002597922233852,1.2,Y,0.23797885403274061,0.4240001862581424,0
0.1175755076535925,0.40000000000000002,N,0.91738515103601559,0.19820321147457901,0.13153341044116409
0.062012398551472801,0.40000000000000002,Y,1.1945605222035609,0.10463156106542421,0
0.50775751933945978,0,N,1.6737846066969422,0.43163768980670381,0.52613364176465638
0.15935636117764729,0,N,1.974291238063776,0.29130676645140208,0.13153341044116409
0.035619921727965999,0,Y,0.91458539981210119,0.031695043046565299,1.0522672835293128
0.71190233537090841,0,N,1.6229224594624938,0.99245055059310483,0
0.27905579348162779,0,Y,1.0004444373454819,0.2482580224509327,0.26306682088232819
0.47426772350173679,0.40000000000000002,Y,1.6845169863886149,0.24272732127284219,0.39460023132349231
0.086569308377856105,0,Y,0.5202871024441289,0.112771916654263,0
0.17467652423978869,0,Y,1.7918407833053407,0.41194725097056878,0.39460023132349231
0.69747825146783582,0,Y,0.73353482066562392,0.29170132107808072,0.26306682088232819
0.43408678986031002,1.2,Y,1.2846191865728136,0.3192913551372854,0
0.49274431765014809,0,N,1.8898320761423519,0.74074424004099404,0
0.20154029529228679,0,Y,0.84132524278633591,0.2164582620705571,0
0.21704339493015501,0,Y,0.89592039165267068,0.12935439872410351,0.13153341044116409
1.4548108700175533,0,Y,0.89452051604071325,0.23791561945225281,0.13153341044116409
0.34106819203310068,0,Y,0.58141500416626435,0.17864538476060551,0.52613364176465638
0.55792244914767375,0,N,1.5179317885656964,0.1663072364498904,0.13153341044116409
1.1831345519635508,0.80000000000000004,N,0.81612748177110461,0.64866346910871597,0.26306682088232819
0.25633445065236821,0,Y,0.93931653562334683,0.23003944391779879,0.26306682088232819
0.63124900981486276,0.40000000000000002,N,0.56508312202676236,0.56858640736692134,0.26306682088232819
0.0918403622547313,0,N,0.068593904985907506,0.10908793996701591,0.13153341044116409
0.43718740978788367,0,N,1.2183584076068348,0.3750525149563475,0
0.164332856161403,0,N,1.7685095231060526,0.33360406662128778,0.13153341044116409
0.074414878261767403,0,N,0.32990401921793649,0.1010769893455282,0
0.17053409601655031,0,Y,0.50255534469266983,0.096601889610042999,0.26306682088232819
0.50775751933945978,0,N,1.4731357689830629,0.51803694869980532,0
0.13547538649547511,0,N,1.0111768170371549,0.13313115914586629,0
0.37958719339334812,0,Y,1.6149898309947357,0.28183477035127402,0.52613364176465638
0.13952789674081389,0,Y,0.93231715756356015,0.21554534172451811,0.65766705220582056
0.062012398551472801,0,N,0.50582172112057022,0.14881138652403739,0.65766705220582056
0.1085216974650775,0.40000000000000002,N,0.91971827705594456,0.22339638211545779,0
0.58911778623899214,0,N,0.69013867669494777,0.2190089943347881,0.26306682088232819
0.13952789674081389,0.80000000000000004,N,0.58048175375829258,0.16372838564232139,0.26306682088232819
0.2821564134092015,0.40000000000000002,N,0.57674875212640664,0.30096477753053508,0.13153341044116409
0.31299827982877648,0,N,1.9752244884717469,0.53922028080769824,0.26306682088232819
0.81320578964459445,0,Y,1.028441949584628,0.23855205321963441,0
0.31936075192015762,0,N,1.8716336931869069,0.42104289118294252,0
0.36807459160226708,0.40000000000000002,N,0.60894589120142428,0.31963586323192222,0
0.35058089397089659,0,N,0.58374813018619309,0.20361972302441911,0.13153341044116409
0.14455710226333829,0,N,1.3690783484942368,0.093489233989026296,0.39460023132349231
0.093018597827209296,0.40000000000000002,Y,0.79139634595985897,0.14881138652403739,0.26306682088232819
0.43408678986031002,0.40000000000000002,Y,1.2706204304532402,0.74549135125540111,0
1.1315650413281455,0,N,1.6826504855726718,0.46573295259639658,0.26306682088232819
0.184499288170342,0.40000000000000002,N,0.93045065674761718,0.5756364794902048,0
0.18603719565441859,0,Y,1.5879255691635614,0.1736730268595123,0
0.61826361355818449,0.40000000000000002,N,1.2603546759655535,0.78054629918336871,0.65766705220582056
0.31936075192015762,1.2,N,1.0466403325400728,0.21574470741773399,0.52613364176465638
0.53360428705571361,0,Y,1.7419118864788641,0.24658008380511259,0.39460023132349231
0.80616118116914715,0,N,1.572060312228045,0.44715136888971918,0.39460023132349231
0.75372659757394922,0.80000000000000004,N,0.86279000216968116,0.4715574440721218,0.26306682088232819
0.54137444059421325,0,N,1.746111513314736,0.4585927072134432,0.13153341044116409
0.26380694467782068,0,N,0.89778689246861354,0.20226115732972141,0
0.31006199275736429,0,N,1.6952493660802872,0.12586218006052199,0.65766705220582056
0.50775751933945978,0,N,1.5291307934613547,0.32363861619032702,0.39460023132349231
0.15753629728016161,0,N,1.3877433566536677,0.1130255056392738,0.52613364176465638
0.52617520170924725,0.80000000000000004,N,0.81706073217907593,0.53575834365232677,0
0.2821564134092015,0,N,1.8007066621810703,0.15030308643586579,0.13153341044116409
0.4709221545998849,0,Y,0.3271042679940217,0.24111777706797929,0
0.54459288407903461,0,N,0.69760467995872011,0.46117334806090621,0
0.52617520170924725,0,N,1.7484446393346649,0.3347144880356529,0.13153341044116409
0.15503099637868209,0,N,1.1250333668096817,0.17864538476060551,0.26306682088232819
0.52402957271936623,0.40000000000000002,Y,0.63041065058476964,0.26666761315777632,0.26306682088232819
0.076746544447302806,0,N,1.460536888475447,0.051480950677057297,0.39460023132349231
0.48933983696967231,0.40000000000000002,N,1.0251755731567276,0.24997847454423999,0.39460023132349231
0.62322460544230229,0,N,1.9182962135854835,0.44928233679876167,0.13153341044116409
0.34106819203310068,0,Y,1.3214825776876891,0.27085958824999651,0.13153341044116409
0.50775751933945978,0.40000000000000002,N,0.85905700053779477,0.28763890012320281,0
0.41002597922233852,0,Y,1.4185406201167281,0.2118207907996694,0
0.54459288407903461,0.80000000000000004,Y,1.297684692284415,0.30732933895933789,0.13153341044116409
0.41002597922233852,0.40000000000000002,Y,0.60101326273366662,0.33117170074506042,0.26306682088232819
0.093018597827209296,0,N,0.14138743680768709,0.099088031268091806,0.65766705220582056
0.41028643129625469,0,N,2.0386855162138118,0.21194609359226291,0.13153341044116409
0.2821564134092015,0,N,1.3046840703442015,0.30096477753053508,1.0522672835293128
0.28069912204324188,0,Y,1.2594214255575822,0.15917392747152689,0.39460023132349231
0.62259207897707713,0,N,0.4269620616469757,1.0477893355821328,0
0.73036652703960947,0,N,1.8114390418727431,0.52291905875623279,0.39460023132349231
0.20154029529228679,0,N,1.3378144598271908,0.22339638211545779,1.0522672835293128
0.12908500882474591,0,N,0.96964717388242161,0.25637286997127928,0.13153341044116409
0.2243670591990839,0,N,0.073260157025765202,0.2190331598733597,0.26306682088232819
0.34106819203310068,0,Y,1.5039330324461233,0.14881138652403739,0.65766705220582056
0.028662130610490701,0.40000000000000002,N,0.89172076481679852,0.075184211446001903,0.13153341044116409
0.9921983768235656,0,Y,0.92111815266790198,0.82007634684682151,0
0.61826361355818449,0.40000000000000002,N,1.5183984137696822,0.60033746374517571,0
0.30695827220986299,0.80000000000000004,N,0.59728026110178023,0.45129083614504312,0.13153341044116409
0.32816961313439441,0,N,0.80166210044754571,0.11484038233699979,0.65766705220582056
0.164332856161403,0.40000000000000002,Y,0.87352238186135356,0.1338943874057533,0.39460023132349231
0.0248049594205891,0,N,2.0480180202935259,0.066767891373474803,0
0.23361310782310851,0,Y,0.41016355430348811,0.1815094485913161,0.26306682088232819
0.23361310782310851,0,N,1.7139143742397178,0.12954712635271171,0.39460023132349231
0.32816961313439441,0.80000000000000004,Y,0.74473382556128243,0.165793793340239,0.26306682088232819
0.58911778623899214,0,N,0.43582794052270529,0.5963213600725602,0.39460023132349231
0.38757749094670541,0,Y,1.4736023941870484,0.22339638211545779,0
0.199233434066172,0,N,1.96495873398406,0.27656056697302239,0
0.1506808266202963,0.40000000000000002,N,0.5678828732506771,0.15572914486514161,0
0.20464091521986039,0,Y,0.70553730842647788,0.14135288696489531,0.39460023132349231
0.74414878261767436,0,N,1.691982989652387,0.69024318703601673,0
0.58911778623899214,0,N,1.4428051307239882,1.2427246800598697,0.26306682088232819
0.16495298014691781,0.40000000000000002,Y,0.81939385819900501,0.1174856883756408,0.39460023132349231
0.48703297574355758,0.40000000000000002,Y,1.4470047575598599,0.37725844078595949,0
0.3679257618457436,0,N,0.93791666001138962,0.34236474561846048,0.39460023132349231
0.1240247971029457,0,Y,0.68733892547103304,0.1032316752831688,0.13153341044116409
0.63761148190624384,0,Y,1.712514498627761,0.53575834365232677,0.39460023132349231
0.053231442916584298,0,N,2.0596836503931701,0.1685018253601723,0.13153341044116409
1.0542107753750387,0.40000000000000002,N,1.0891032261027771,0.86979970210276714,0.52613364176465638
0.2821564134092015,0.40000000000000002,Y,1.1567638806807137,0.1670432411863865,0
0.1204900903855117,0.80000000000000004,N,0.32803751840199341,0.24258956278598481,0.39460023132349231
0.077515498189341003,0.40000000000000002,N,0.87492225747331098,0.26068887991116801,0
0.43408678986031002,0,N,2.0531508975373698,0.55902886227685,0
0.74414878261767436,0,N,1.2682873044333116,0.53239135319634334,0
0.32181954352272357,0.80000000000000004,N,0.7862634687160156,0.2118207907996694,0.52613364176465638
0.31066971426316869,0,Y,0.31590526309836348,0.2051155996960006,0.39460023132349231
0.54474791507541331,0.80000000000000004,N,0.81379435575117554,0.30741220288943988,0.78920046264698474
0.52988974438248038,0,N,0.74846682719316837,0.29946979587890071,0.26306682088232819
0.44120891383394661,0,N,1.0541063358038449,0.45400423828465891,0.13153341044116409
0.44276852565751618,0.40000000000000002,N,0.52681985529992958,0.32525815478459907,0.39460023132349231
0.1690582009310253,0.40000000000000002,Y,0.86465650298562424,0.192142285562829,0
0.43718740978788367,0,N,1.4717358933711056,0.22488808202728619,0.52613364176465638
0.0228701725857831,0.40000000000000002,Y,1.1730957628202154,0.067851313019435797,0.26306682088232819
0.4649968699182917,0,Y,1.1035686074263362,0.084864896363794698,0
0.4718399380984466,1.2,Y,1.3779442273699667,0.36618368771556742,0
0.43718740978788367,0,Y,1.9486268518445584,0.17561536931470409,0.65766705220582056
0.58911778623899214,0,Y,0.26597636627188648,0.4258413914593121,0.26306682088232819
0.19840246792558219,0,Y,0.8179939825870477,0.1222724042227069,0.52613364176465638
0.52617520170924725,0,N,1.891231951754309,0.53575834365232677,0.39460023132349231
0.34106819203310068,0,N,1.8408364297238464,0.34387986521890462,0
0.18603719565441859,0,N,1.454937386027618,0.2084793829971737,0.13153341044116409
1.4953421737107959,0.80000000000000004,Y,0.90245314450847081,0.91754401908568983,0
0.48902977497691491,0,N,0.67660654577936041,0.39056000348472902,0.52613364176465638
0.47426772350173679,0,N,1.8613679386992199,0.30349880275575358,0.26306682088232819
0.52710538768751936,0.80000000000000004,N,0.87212250624939636,0.22339638211545779,0
0.2956255063745814,0.80000000000000004,Y,0.2767087459635591,0.16333062386083241,0.39460023132349231
0.16495298014691781,0,N,1.1017021066103931,0.093916829768751903,0.13153341044116409
0.1240247971029457,0,Y,1.6341214643581523,0.18610388431974759,0.13153341044116409
0.1444888886249317,0,N,1.4787352714308919,0.24796557468321881,0
0.2821564134092015,0,N,1.3126166988119596,1.0757962997666937,0.13153341044116409
0.18603719565441859,0.80000000000000004,N,0.73960094831743894,0.1736730268595123,0
0.86817357972062004,0,Y,0.90431964532441445,0.45025910190102703,0.9207338730881488
0.093018597827209296,0,N,0.0055995024478292001,0.1189773882874692,0
0.54459288407903461,0,N,1.6411208424179389,0.21265614275029329,0.39460023132349231
0.43408678986031002,0,N,0.8539241232939514,0.44715136888971918,0.13153341044116409
0.3445408863519831,0.80000000000000004,N,0.65047553435615757,0.18031608866185339,0.39460023132349231
0.68883682372968802,0,N,1.45913701286349,0.86542775341618483,0.52613364176465638
0.21704339493015501,0.80000000000000004,N,0.5646164968227767,0.1804534742237327,0.65766705220582056
0.48933983696967231,0,N,1.8441028061517468,0.59568209207534617,0.26306682088232819
0.79988862705566566,0,N,1.7470447637227071,0.68885046141333806,0.65766705220582056
0.26011100572415291,0.40000000000000002,N,1.454937386027618,0.3497806571451198,0
0.4928094306686272,0,N,1.3905431078775821,0.2926719702107074,0
0.15503099637868209,0.40000000000000002,N,1.2304906629104644,0.17864538476060551,0.26306682088232819
0.391099795184429,0,N,0.9761799267382224,0.20271545453786871,0.9207338730881488
0.31936075192015762,0,N,1.3779442273699667,0.1401085854834436,0
0.13937286574443519,0.40000000000000002,Y,0.66540754088370202,0.071543941566171401,0.26306682088232819
0.32629683869813991,0,N,0.054128523662348799,0.26823128759035048,0
0.20154029529228679,0.40000000000000002,N,1.0527064601918878,0.18610388431974759,0.13153341044116409
1.2092417717537207,0.80000000000000004,N,0.54921786509124659,0.9941079783651372,0.26306682088232819
0.34106819203310068,0.40000000000000002,N,0.84692474523416506,0.22339638211545779,0.26306682088232819
0.093018597827209296,0,N,0.60381301395758091,0.14170806071390171,0
0.31936075192015762,0,N,1.0429073309081869,0.1200417907595543,0.13153341044116409
0.58911778623899214,0.80000000000000004,Y,1.4731357689830629,0.4968747241456648,0.52613364176465638
0.1403960703205345,0.80000000000000004,Y,1.0471069577440586,0.082102566467070898,0.78920046264698474
0.27905579348162779,0.80000000000000004,Y,0.38729891930818572,0.13525049179559651,0.26306682088232819
0.3569712716416259,0.40000000000000002,Y,0.31683851350633491,0.20703571582250621,0.39460023132349231
0.85670128598859752,0,Y,0.44656032021437791,0.53348350128678845,0.26306682088232819
0.31936075192015762,0.80000000000000004,N,0.92811753072768843,0.56151008132518976,0.78920046264698474
0.72841933772509326,0.40000000000000002,Y,0.66587416608768801,0.4055942502160827,0.26306682088232819
0.099002794287426393,0,N,0.53475248376768769,0.088994220059718104,0
0.1300772072015694,0.40000000000000002,N,0.88285488594106909,0.19338337988947021,0
0.071221239736366501,0,N,1.3224158280956602,0.16357921565113859,0
0.27905579348162779,0.80000000000000004,N,0.66494091567971636,0.29798137770687833,0.13153341044116409
0.18541707166890381,0,N,0.39009867053210018,0.14425342285845011,0.39460023132349231
0.48059608877391458,0,N,1.7918407833053407,0.49190236624457151,0
0.20154029529228679,0,N,0.96871392347444985,0.1594663752392409,0.65766705220582056
0.58911778623899214,0.80000000000000004,Y,0.68127279781921823,0.29798137770687833,0.26306682088232819
0.1240247971029457,0.40000000000000002,Y,0.36396765910889739,0.18610388431974759,0.26306682088232819
0.093018597827209296,0.80000000000000004,Y,0.65654166200797259,0.059309391814332799,0.26306682088232819
0.093018597827209296,0.40000000000000002,N,0.84505824441822197,0.1189773882874692,0.26306682088232819
0.27905579348162779,0,Y,0.73960094831743894,0.2127413934002543,0.65766705220582056
0.65113018479046492,0,N,0.16331882139501799,0.36700583812197168,0
0.52710538768751936,0.40000000000000002,N,0.5996133871217092,0.22339638211545779,0
0.30662030463775758,0,N,1.13623237170534,0.2316859822804751,0.26306682088232819
0.2356316113959589,0,N,0.25664386219217122,0.25619886317656448,0.26306682088232819
0.65113018479046492,0,Y,0.79886234922363097,0.46846134632012632,0.26306682088232819
0.080430080921260305,0,Y,0.66494091567971636,0.133670632418979,0
0.1271254170305193,0.80000000000000004,N,0.51982047724014324,0.12643588784661119,0.52613364176465638
0.43408678986031002,0,N,1.5981913236512482,0.62118300040803509,0
0.15503099637868209,0.40000000000000002,N,0.79979559963160274,0.17864538476060551,0.26306682088232819
0.15472093438592471,0,N,1.4255399981765149,0.23478043916256749,0.78920046264698474
0.093018597827209296,0.40000000000000002,N,0.61407876844526776,0.099088031268091806,0.26306682088232819
0.48679732862906189,0,Y,0.85485737370192305,0.2646561304116713,0.52613364176465638
0.18541707166890381,0,N,0.3541685298251962,0.1731758432788999,0
0.051625321794101099,0,N,2.0078882527507504,0.079149000641650605,0.13153341044116409
0.54207828131777247,0,N,1.115700862729966,0.30598516816878929,0.26306682088232819
0.74414878261767436,0.40000000000000002,Y,0.2743756199436303,0.74549135125540111,0.13153341044116409
0.2480495942058914,0,Y,1.6168563318106788,0.22339638211545779,0.13153341044116409
0.20154029529228679,0,N,1.616389706606693,0.22339638211545779,0
0.093018597827209296,0,N,0.030797263463060501,0.19853474177998279,0.26306682088232819
0.062012398551472801,0.40000000000000002,N,0.30377300779473349,0.074226390932616904,0.78920046264698474
0.093018597827209296,0,Y,0.85579062410989448,0.1189773882874692,0
0.24196617790799191,0.80000000000000004,Y,0.44236069337850609,0.1190289265194228,0
0.58142824881860955,0,N,1.207626027915162,0.73624281180206497,0.13153341044116409
0.74414878261767436,0.80000000000000004,Y,0.56228337080284785,0.41400251510908598,0.39460023132349231
0.27905579348162779,0,Y,0.29164075249110361,0.37256637329829878,0
0.14572913659596121,0,N,1.863234439515163,0.10086390001312361,0.13153341044116409
0.1444888886249317,0,N,1.1880277693477601,0.1559936232595088,0
0.76497564667118656,0,Y,0.89638701685665623,1.0633767792257882,0.13153341044116409
0.28835765326434881,0.40000000000000002,N,0.74566707596925375,0.1532864862595226,0.26306682088232819
0.58911778623899214,0,Y,0.2244467231171533,0.27085958824999651,0.26306682088232819
0.52988974438248038,0.40000000000000002,N,1.0116434422411404,0.67425522196603538,0.26306682088232819
0.2115614988982048,0,N,0.76433208412868459,0.23303873034551659,0
0.1248185558044045,0,N,0.34576927615345249,0.17002067421039599,0.26306682088232819
0.1093898710447981,0.80000000000000004,N,0.47642433326946698,0.096133048327755294,0.26306682088232819
0.66663328442833325,0,N,1.9192294639934555,0.33527387550258858,0
0.074290853464664394,0,Y,1.3060839459561586,0.1685018253601723,0
0.31936075192015762,0,Y,1.5925918212034189,0.22742598567227551,0.52613364176465638
0.26351858702455627,0,N,0.54221848703145981,0.10085219016881571,0.39460023132349231
1.0542107753750387,0,N,0.31217226146647747,0.37256637329829878,0.39460023132349231
0.143825355960431,0.40000000000000002,Y,0.32990401921793649,0.1047801343766423,0.78920046264698474
0.091573708940959897,0,N,1.9262288420532416,0.19621760972194419,0.26306682088232819
0.27905579348162779,0,N,0.1740512010866907,0.37256637329829878,0.13153341044116409
0.31936075192015762,0.40000000000000002,N,0.50162209428469828,0.38273365072733001,0.13153341044116409
0.35656509043111378,0.40000000000000002,Y,1.1754288888401443,0.31040723797240899,0.39460023132349231
0.058911778623899201,0,N,1.6840503611846289,0.047707248240113798,0.78920046264698474
0.18603719565441859,0,N,1.5067327836700379,0.26068887991116801,0
0.31006199275736429,0.80000000000000004,N,0.86325662737366693,0.2340513708306613,0
0.062012398551472801,0.40000000000000002,Y,0.72000268975003678,0.074226390932616904,0.65766705220582056
0.15503099637868209,0,N,0.069060530189893304,0.1275014090936302,0.13153341044116409
0.58515519397155302,0,Y,0.83105948829864906,0.26912645670743868,0.52613364176465638
0.98021758142342119,0.40000000000000002,Y,1.0527064601918878,0.34713930411124527,0.52613364176465638
0.27905579348162779,0,Y,1.5482624268247711,0.2256565312368646,0.39460023132349231
0.093018597827209296,0.40000000000000002,Y,0.82592661105480569,0.074226390932616904,0
0.2318767606636673,0,N,0.58748113181807904,0.1577317519967712,0.39460023132349231
0.51134803721559008,0,N,1.8403698045198604,0.4345166706365326,0
0.055197235950665897,0,N,0.64300953109238546,0.034201620993406102,0.52613364176465638
0.20895697815904291,0,N,1.5687939358001446,0.1439484448114767,0.39460023132349231
0.92088411848937202,0,Y,1.8441028061517468,0.41596126626330782,0.65766705220582056
0.48933983696967231,0,Y,1.8567016866593624,0.31256274434500098,0.26306682088232819
0.26710910490068662,0,Y,0.70507068322249222,0.25575291948792339,0.26306682088232819
0.85670128598859752,0.40000000000000002,Y,0.94864903970306202,0.60974665927901572,0.13153341044116409
0.4431064932296217,0,N,1.7783086523897538,0.455830078976737,0.26306682088232819
0.31699807953534648,0,Y,0.31357213707843462,0.15184498204972721,0
0.30698617778921122,0,N,1.164229883944486,0.1887195801151387,0
0.27905579348162779,0,Y,1.5846591927356608,0.37256637329829878,0
0.62809877996844798,0,Y,1.45913701286349,0.14377488552673551,0.26306682088232819
0.16427704500270671,0,N,1.8511021842115327,0.31280887483045272,0
0.32816961313439441,0.40000000000000002,N,0.5142209747923141,0.28763890012320281,0.26306682088232819
0.67506697063133358,0,Y,0.70973693526234993,0.16948634730197909,0.26306682088232819
0.85670128598859752,0.40000000000000002,N,1.1595636319046283,0.53348350128678845,0
0.83468688450282469,0,N,1.2351569149503223,1.0408479337974259,0
0.27905579348162779,0.40000000000000002,Y,1.0905031017147346,0.39219401156814582,0.13153341044116409
0.40120471552839149,0,N,1.8949649533861952,0.296692101473085,0.65766705220582056
0.74414878261767436,0,N,1.0858368496748774,0.46579761778757428,0.26306682088232819
0.3478771533940524,0,N,0.86652300380156722,0.2021744895648441,0.13153341044116409
0.4928094306686272,0,N,1.3550795923746639,0.41965188101516249,0.13153341044116409
0.68981351900687371,0.80000000000000004,N,0.41389655593537439,0.57761544317823199,0.39460023132349231
0.13425684286393871,0,N,1.0387077040723147,0.13215409570361869,0
0.27905579348162779,0,N,0.82079373381096199,0.18610388431974759,0.26306682088232819
0.1037281390570486,0.80000000000000004,N,0.40689717787558771,0.1292820512783798,0.26306682088232819
0.2318767606636673,0,N,1.7059817457719602,0.39486728698013351,0.13153341044116409
0.3199839765255999,0,N,1.0424407057042009,0.24087060239258939,0.26306682088232819
0.34316111048421288,0.40000000000000002,N,0.73820107270548163,0.1796522822010897,0.13153341044116409
0.34106819203310068,0,N,1.1880277693477601,0.44715136888971918,0
0.37728343278716081,0,N,0.39803129899985829,0.49070900631510878,0
0.54459288407903461,0.40000000000000002,Y,0.68127279781921823,0.46117334806090621,0.39460023132349231
0.74414878261767436,0,N,1.966825234800003,0.46579761778757428,0.65766705220582056
0.66278851571814201,0,N,1.9966892478550919,0.37051110915978158,0.13153341044116409
0.41965030347752708,0,N,1.5375300471330986,0.43326065931077312,0.65766705220582056
0.15503099637868209,0,N,0.54688473907131752,0.1115188887283271,0.39460023132349231
0.13425684286393871,0,N,0.16938494904683291,0.13215409570361869,0.26306682088232819
1.2212938814121996,0,Y,0.99764468612156765,0.66906164496801801,0.13153341044116409
0.1085216974650775,0.40000000000000002,Y,0.38683229410419989,0.22339638211545779,0
1.1831345519635508,0,N,1.7190472514835613,0.72979120968340705,0.78920046264698474
0.049721541158570901,0,N,1.9906231202032769,0.11060678881723961,0.26306682088232819
0.66278851571814201,0,N,1.243556168622066,0.41686986067960258,0.26306682088232819
1.2092417717537207,0,Y,0.32243801595416421,0.54207770657380105,0
0.031006199275736401,0,N,0.99997781214149639,0.099088031268091806,0.13153341044116409
0.037145426732332197,0,N,1.3042174451402158,0.077707048921881697,0.13153341044116409
0.36767771225153772,0,N,1.3200827020757315,0.19144715340391691,0.39460023132349231
0.43408678986031002,0.80000000000000004,N,1.0102435666291831,0.3192913551372854,0.13153341044116409
0.89917977899635648,0,N,1.1203671147698238,0.4968747241456648,0
0.34044806804758598,0,N,0.96544754704654945,0.74424824313387894,0.26306682088232819
0.14213241747997579,0,N,2.0984135423239891,0.27729649712452281,0.39460023132349231
0.15195518141052899,0,N,1.3284819557474754,0.1290858181549788,0.39460023132349231
0.1023700675287714,0,Y,2.062950026821071,0.17306560665541579,0.13153341044116409
0.47417160428398208,0.40000000000000002,N,0.81659410697509027,0.3468409641288796,0
0.21685425711457301,0,N,1.0779042212071193,0.14869764440576039,0.39460023132349231
0.18603719565441859,0,Y,1.481068397450821,0.1736730268595123,0.26306682088232819
0.17554469781950929,0,N,1.8305706752361592,0.099012476667557706,0
0.89607915906878277,0.80000000000000004,Y,0.53615235937964512,0.74300520959735228,0
0.15503099637868209,0,N,0.23657897842078329,0.16538581341435399,0.13153341044116409
0.30695827220986299,0,N,1.4899342763265504,0.32482899271996601,0
0.69332962200474235,0,Y,1.0709048431473329,0.34811741174343119,0.13153341044116409
0.15503099637868209,0.40000000000000002,N,0.66634079129167367,0.17864538476060551,0.26306682088232819
0.069286452901560602,0,N,1.3373478346232046,0.1202677087112007,0.13153341044116409
0.21704339493015501,0.40000000000000002,N,1.2538219231097529,0.22913368373133661,0.13153341044116409
0.36408719437540749,0,Y,1.335014708603276,0.2372393572972254,0
0.3117983399168055,0,N,1.1684295107803575,0.16456373759294529,0.26306682088232819
0.13022603695809301,0,N,1.9355613461329568,0.1935623838788896,0.52613364176465638
0.13425684286393871,0,N,1.729779631175234,0.10766806540594211,0.39460023132349231
0.3030266861416997,0,N,1.8081726654448429,0.1909536990730841,0
0.1984396753647131,0,N,1.6196560830345932,0.1836177426616987,0.13153341044116409
0.0120955183374647,0,N,0.56974937406662018,0.029264392625236502,0.13153341044116409
0.31936075192015762,0,N,1.9761577388797185,0.46786526303535969,0.26306682088232819
0.1085216974650775,0.40000000000000002,Y,1.1273664928296101,0.23937890248076091,0.13153341044116409
0.25034405295229589,0,Y,1.3336148329913189,0.30727056598281183,0.39460023132349231
0.27905579348162779,0,N,0.56274999600683373,0.10619135707822749,0.13153341044116409
0.74414878261767436,0,Y,0.73353482066562392,0.46579761778757428,0.26306682088232819
0.73645924519729167,0,N,0.89172076481679852,0.3688669575169643,0.13153341044116409
0.3539574690720243,1.6000000000000001,Y,0.83245936391060615,0.092243888317636302,0.13153341044116409
0.52571630995996632,0.40000000000000002,Y,1.0704382179433469,0.29723880949077008,0.26306682088232819
0.27905579348162779,0,N,1.5398631731530272,0.2660164115612676,0.13153341044116409
0.32816961313439441,0,N,1.2426229182140949,0.191639731862534,0
0.15503099637868209,0,N,1.2192916580148063,0.1205900650621469,0.78920046264698474
0.17554469781950929,0,Y,0.5706826244745915,0.082450654641495993,0.26306682088232819
1.3271149389203605,0,N,0.97104704949437881,0.46634738379007878,0.52613364176465638
1.0342427830414644,0,N,1.2085592783231336,0.3657045537038881,0.26306682088232819
0.54459288407903461,0,Y,1.6887166132244866,0.2304073717010513,0.52613364176465638
0.4147389215122505,0.40000000000000002,Y,0.80679497769138908,0.2140881746656485,0.65766705220582056
0.13425684286393871,0,N,2.111012422831605,0.14687769592833419,0
0.73645924519729167,0,N,0.76199895810875562,0.512454709289761,0.26306682088232819
0.27905579348162779,0,N,1.297684692284415,0.2127413934002543,0.52613364176465638
0.18541707166890381,0.80000000000000004,Y,0.32477114197409301,0.2078827030324423,0.26306682088232819
0.31936075192015762,0,N,1.4306728754203579,0.7019771968824412,0.26306682088232819
0.27905579348162779,0,N,0.1964492108780074,0.087388479689630497,0.26306682088232819
0.0146225235784373,0.40000000000000002,N,1.3784108525739525,0.031001178832578299,0.39460023132349231
0.2055897049176979,0.40000000000000002,N,0.1241223042602137,0.21853687131269439,0.52613364176465638
0.20774153514743399,0,Y,0.97478005112626476,0.1059940797648882,0.65766705220582056
0.52710538768751936,0,N,1.2855524369807847,0.14881138652403739,0.26306682088232819
0.035099017580133597,0.40000000000000002,N,0.83945874197039294,0.052646490403164402,0.26306682088232819
0.42348266970800807,0,Y,1.094236103346621,0.43694814149281291,0.26306682088232819
0.17464551804051301,0.80000000000000004,Y,0.28837437606320332,0.1202980648044064,0
0.34416261072081922,0,N,1.5314639194812836,0.30046259675521808,0.13153341044116409
0.58911778623899214,0,Y,1.9887566193873336,0.22913368373133661,0.26306682088232819
0.89220958539917095,0,Y,1.6952493660802872,0.39620981690077911,0.26306682088232819
0.1444888886249317,0,N,2.1595414440461238,0.14521072127686591,0.13153341044116409
0.74414878261767436,0,N,1.3798107281859096,0.58233667339916884,0
0.0053516699949920999,0.40000000000000002,Y,0.40736380307957359,0.0246295318291944,0.65766705220582056
1.0342427830414644,0.80000000000000004,Y,0.83245936391060615,0.64025192247590679,0.13153341044116409
0.36423912475185849,0,N,1.5342636707051984,0.2712863635947706,0.13153341044116409
0.27905579348162779,0,N,0.55621724315103294,0.1239497461885624,0.39460023132349231
0.60462088587686036,0,N,1.5739268130439881,0.2180688504653582,0.39460023132349231
0.4718399380984466,0.40000000000000002,N,0.2995733809588616,0.60443620759290673,0
0.062012398551472801,0.40000000000000002,Y,0.33597014686975141,0.044392392696048701,0.13153341044116409
0.1240247971029457,0,N,1.822171421564416,0.2482580224509327,0
0.81249884830110763,0,N,1.8156386687086148,0.4054494061546442,0
0.52402957271936623,0,N,0.086792287941352395,0.29633722606406099,0.26306682088232819
0.81168028464022823,0,N,1.6947827408763017,0.40505559737792157,0.13153341044116409
0.99873448363089101,0.80000000000000004,N,0.85999025094576642,0.6188982382380831,0.13153341044116409
0.57446425646127919,0,N,0.58981425783800812,0.2909316039235772,0.26306682088232819
0.58911778623899214,0,N,0.30330638259074783,0.53239135319634334,0.13153341044116409
0.54459288407903461,0.40000000000000002,N,0.99531156010163835,0.49413991611231411,1.0522672835293128
0.52617520170924725,0,Y,1.4983335299982941,0.26769986949676161,0.65766705220582056
0.15472093438592471,0.80000000000000004,N,0.54501823825537454,0.22302345713750071,0
0.1240247971029457,0,N,0.29070750208313217,0.092872639830472004,0
0.34044806804758598,0,N,0.49462271622491188,0.405790632509475,0.26306682088232819
0.31365251063349447,0,N,2.0223536340743093,0.33127015293924111,0.13153341044116409
0.71190233537090841,0,N,1.983157116939505,0.59532691832633977,0.52613364176465638
0.43408678986031002,0,N,1.8030397882009996,0.74549135125540111,0
0.34612840375490089,0,N,0.35883478186505402,0.33563852154603507,0
0.85670128598859752,0.80000000000000004,N,0.64160965548042803,0.88937826344551485,0.65766705220582056
0.1240247971029457,0,N,2.0134877551985801,0.14881138652403739,0
0.89917977899635648,0,Y,1.9196960891974408,0.406468610119401,0
0.51438044350475709,0,N,1.8301040500321737,0.72848597226055722,0
0.43408678986031002,0,N,0.22024709628128139,0.30201299505857693,0
0.37207439130883718,0,Y,0.58934763263402234,0.24204263101331289,0.13153341044116409
0.31936075192015762,0,N,1.9920229958152345,0.2103421432620694,0.26306682088232819
1.7034805882089594,0.40000000000000002,Y,1.1133677367100374,1.0427125586872117,0
0.58911778623899214,0,Y,1.7204471270955186,0.46579761778757428,0
0.43316280512189309,0.80000000000000004,Y,0.76759846055658498,0.27877947059186708,0
0.61393514813929162,0,Y,1.3858768558377246,0.16294643654854099,0
0.58911778623899214,0,Y,1.6266554610943798,0.4968747241456648,0.65766705220582056
0.094407675554762205,0,N,2.0811484097765161,0.1672421593696288,0.52613364176465638
0.0020464091521986,0.80000000000000004,N,0.67427341975943178,0.052646490403164402,0.65766705220582056
0.13937286574443519,0,N,1.3625455956384365,0.19480549200041181,0.26306682088232819
0.1240247971029457,0,N,2.1170785504834195,0.14881138652403739,0.13153341044116409
0.27905579348162779,0,N,1.7041152449560171,0.2190089943347881,0.9207338730881488
0.1690582009310253,0,N,1.0583059626397171,0.1600588038592235,0
0.1240247971029457,0,N,1.6126567049748068,0.2386958530911347,0.13153341044116409
0.78445684167613161,0,N,1.8935650777742377,0.16310686887405809,0.39460023132349231
0.1444888886249317,0.40000000000000002,Y,0.28744112565523178,0.2810754205111578,0.13153341044116409
0.27905579348162779,0.40000000000000002,N,0.28884100126718909,0.16538581341435399,0
0.30858919829176679,0.40000000000000002,N,1.040107579684272,0.40808747744871282,0
0.41002597922233852,0.40000000000000002,N,0.9444494128671902,0.30275481742472921,0.13153341044116409
0.1506808266202963,0,Y,1.6835837359806434,0.10890282000795801,0.78920046264698474
0.34971892163103119,0.40000000000000002,N,0.3084392598345912,0.20315901150665089,0.52613364176465638
0.2318767606636673,0,Y,1.2024931506713188,0.1577317519967712,0.26306682088232819
0.080430080921260305,0,N,1.4834015234707496,0.098922303407887699,0.52613364176465638
0.62225721202489925,0,Y,1.4558706364355898,0.78534957289945606,0
0.67845594821217148,0,N,1.4376722534801449,0.34096172726639029,0.13153341044116409
0.13952789674081389,0.40000000000000002,N,0.5963470106938088,0.1168464203784267,0.26306682088232819
0.27905579348162779,0,N,1.1082348594661939,0.18610388431974759,0.13153341044116409
0.35380553869557319,0,Y,1.9626256079641315,0.38533286323869542,0
0.2480495942058914,0,N,1.0653053406995034,0.22339638211545779,0.39460023132349231
1.0542107753750387,0.40000000000000002,N,0.83899211676640695,0.74549135125540111,0.39460023132349231
1.1623200903897488,0,Y,1.9355613461329568,0.40971715960238531,0.26306682088232819
0.51709038532145646,0,N,1.8963648289981525,0.37633821111035248,0.13153341044116409
0.1271254170305193,0,N,0.54035198621551672,0.180776352669648,0.39460023132349231
0.15503099637868209,0,N,0.14278731241964429,0.1115188887283271,0
0.1291470212232973,0.40000000000000002,N,0.84692474523416506,0.12805684355579949,0
0.52617520170924725,0,N,1.4236734973605716,0.44640551893380509,0.13153341044116409
0.3106139031044724,0,N,1.783441529633597,0.18225529854723019,0
0.85670128598859752,0,N,0.52868635611587267,0.60974665927901572,0.39460023132349231
0.1240247971029457,0,Y,0.36956716155672648,0.1239497461885624,0.78920046264698474
0.093018597827209296,0.80000000000000004,Y,0.63041065058476964,0.0559319594589665,0.13153341044116409
0.077205436196583696,0.80000000000000004,N,0.62154477170904021,0.043025025971871203,0.26306682088232819
0.36276322966633351,0,N,1.7041152449560171,0.21013188815949721,0.13153341044116409
0.52617520170924725,0,N,1.8627678143111772,0.66978758073010924,0
0.19807690283318699,0,Y,0.11852280181238441,0.30578378868069239,0
0.19840246792558219,0,N,0.58841438222605069,0.15730982467671059,0.26306682088232819
0.58911778623899214,0,N,0.24124523046064081,0.41400251510908598,0.13153341044116409
0.63823160589175865,0,Y,1.5421962991729561,0.32160990431024028,0
0.1085216974650775,0,Y,0.8763221330852683,0.066767891373474803,0
0.17053409601655031,0.40000000000000002,N,0.33317039564583678,0.1935623838788896,0.52613364176465638
0.43408678986031002,0.40000000000000002,Y,0.32430451677010719,0.3192913551372854,0.65766705220582056
0.093018597827209296,0.80000000000000004,N,0.81659410697509027,0.16538581341435399,0
0.27905579348162779,0,N,1.2169585319948777,0.29798137770687833,0
0.34106819203310068,0,Y,0.76199895810875562,0.17864538476060551,0.26306682088232819
0.4000047756164205,0,Y,1.1982935238354468,0.1881488557288731,0.39460023132349231
0.998874011527632,0.40000000000000002,N,0.43862769174661981,0.27490395963594128,0
0.2708453519134128,0,N,1.625722210686408,0.19588458771662851,0.52613364176465638
0.3117983399168055,0,N,2.0354191397859105,0.34322963322733852,0.26306682088232819
0.32816961313439441,0,Y,0.912252273792172,0.5756364794902048,0
0.73645924519729167,0,N,1.3620789704344505,0.43919561116496919,0
0.15503099637868209,0,Y,1.6915163644484017,0.1275014090936302,0.26306682088232819
0.55380172526392835,0.40000000000000002,N,0.40223092583573022,0.32679199521893659,0.26306682088232819
0.71190233537090841,0,N,1.335014708603276,0.44640551893380509,0
0.46509298913604641,0,N,1.4624033892913899,0.23831338123374191,0
0.57621610672035817,0,N,1.7820416540216399,0.36480766913190121,0.13153341044116409
0.48840965099140021,0,N,1.0074438154052685,0.83260662610618019,0
0.44338864964303087,0,N,1.3149498248318885,0.45610156836068971,0.13153341044116409
0.062012398551472801,0,N,0.5963470106938088,0.089143390050900995,0.13153341044116409
0.15503099637868209,0.40000000000000002,Y,1.2169585319948777,0.22339638211545779,0.39460023132349231
0.27905579348162779,0,Y,0.2561772369881854,0.2660164115612676,0.26306682088232819
0.086817357972061998,0,N,2.0358857649898967,0.14135288696489531,0
0.85670128598859752,0,N,1.6019243252831343,0.42671508009767001,0.52613364176465638
0.85670128598859752,0.40000000000000002,N,1.0909697269187206,0.4741676951628348,0.65766705220582056
0.059135023258684499,0,N,1.929495218481142,0.086374795014547395,0.13153341044116409
0.63497595496780634,0,N,1.8408364297238464,0.5336451269722351,0
0.0918403622547313,0,N,1.2542885483137387,0.1227687673683678,0
0.94651074219076803,0,Y,1.8870323249184371,0.36139585309356731,0.39460023132349231
0.2027402352042578,0.40000000000000002,N,0.89592039165267068,0.1245911771506486,0
0.34106819203310068,0,Y,0.92578440470775925,0.1115188887283271,0.52613364176465638
1.1831345519635508,0.40000000000000002,Y,0.95424854215089139,0.72979120968340705,0.26306682088232819
0.61826361355818449,0,N,1.8347703020720316,0.91835304253286998,0.39460023132349231
0.34106819203310068,0,Y,1.6378544659900385,0.22339638211545779,0.52613364176465638
0.34106819203310068,0,N,1.1096347350781512,0.2127413934002543,0.13153341044116409
0.077515498189341003,0.80000000000000004,Y,0.38356591767629949,0.086657248392852201,0.13153341044116409
0.43408678986031002,0,N,1.5631944333523158,0.44715136888971918,0
0.13952789674081389,0,N,1.5561950552925294,0.090800817822933505,0.39460023132349231
0.084677930222036096,0,Y,0.75733270606889791,0.046020806904796201,0
0.160965582920058,0,Y,1.8860990745104655,0.11508778076737659,0
0.26710910490068662,0,N,1.9962226226511064,0.29234029073531242,0.26306682088232819
1.3565832307120202,0,N,1.2416896678061229,1.1122506113819473,0
0.074290853464664394,0.40000000000000002,N,0.97851305275815104,0.31625470162677638,0
0.43408678986031002,0.40000000000000002,Y,1.0293751999925995,0.20305504002279651,0.52613364176465638
0.16495298014691781,0,N,0.28464137443131721,0.29425212792730721,0.13153341044116409
0.27905579348162779,0,N,1.1791618904720309,0.23271950656438539,0.39460023132349231
0.61826361355818449,0,N,1.8394365541118891,0.32501843860876828,0.52613364176465638
0.3445408863519831,0,Y,0.25571061178419968,0.2577480681199939,0
0.1085216974650775,0.80000000000000004,Y,0.64347615629637112,0.0575090591907471,0.26306682088232819
0.58911778623899214,0.40000000000000002,Y,1.4983335299982941,0.19853474177998279,0
0.30100508194892162,0.80000000000000004,Y,0.85159099727402265,0.22782673085358821,0.13153341044116409
0.033920782007655602,0,N,1.1203671147698238,0.0308775914948833,0.39460023132349231
0.15472093438592471,0,Y,1.426939873788472,0.17834704477823979,0.26306682088232819
0.47045706161074879,0,N,1.6303884627262659,0.30120717876620717,0.26306682088232819
0.71190233537090841,0,N,0.66634079129167367,0.59532691832633977,0.26306682088232819
0.79868868714369468,0,Y,1.8543685606394336,0.3988053747473605,0.26306682088232819
0.1085216974650775,0,N,0.68127279781921823,0.1338943874057533,0.13153341044116409
0.27905579348162779,0,Y,1.4628700144953759,0.29798137770687833,0
0.38873712279961792,0.40000000000000002,N,0.689672051490962,0.16792252369941379,0.52613364176465638
0.074290853464664394,0,Y,1.3457470882949487,0.072010172373613401,0.39460023132349231
0.52617520170924725,0,N,1.841769680131818,0.53575834365232677,0
0.093018597827209296,0,N,1.3317483321753758,0.19853474177998279,0
0.68270999875280247,0.40000000000000002,N,1.1870945189397879,0.38116020566033348,0
0.75017638775687745,0,N,0.098457918040996503,0.75129108051258986,0
0.2115614988982048,0,N,1.9943561218351635,0.36432473128544679,0.26306682088232819
0.26889506197896901,0.80000000000000004,N,0.60661276518149565,0.13080656858826839,0
0.2821564134092015,0,N,1.4661363909232763,0.57910945522492374,0.39460023132349231
0.81168028464022823,0,N,1.562261182944344,0.61390536946320229,0.13153341044116409
0.52617520170924725,0,N,1.9285619680731705,0.39384502503055752,0.39460023132349231
1.0219643281282726,0.40000000000000002,N,1.1189672391578664,0.68421067800758695,0
0.50775751933945978,0.80000000000000004,Y,0.92065152746391599,0.16164000576576171,0.78920046264698474
0.26615721458292152,0,N,1.0191094455049123,0.28557043444046593,0
0.37759349477991822,0,Y,1.5384632975410699,0.42698097560695347,0
0.33504988875368019,0,N,1.5510621780486855,0.43991289506757181,0
0.34044806804758598,0,Y,1.9215625900133839,0.22302345713750071,0.65766705220582056
0.2480495942058914,0,N,1.0503733341719588,0.1914314159698472,0.13153341044116409
0.054183333234349401,0,N,1.3980091111413546,0.1460144491893591,0.13153341044116409
0.71055666632234138,0,N,1.8786330712466932,0.48175477925437638,0.26306682088232819
0.20154029529228679,0,Y,0.9472491640911046,0.22339638211545779,0.26306682088232819
0.38342266024375671,0,N,0.65840816282391568,0.12425427672556209,0.26306682088232819
1.1570273321733806,0,Y,1.8893654509383664,0.81615533904358495,0
0.093018597827209296,0,N,0.17731757751459101,0.13525049179559651,0.13153341044116409
0.85670128598859752,0,N,1.621989209054522,0.45397507555138278,0.52613364176465638
0.044419481082419998,0,N,1.2841525613688278,0.10043884012324809,0
0.65498735598036673,0,Y,1.4876011503066218,0.29431075173384208,0.52613364176465638
0.0020464091521986,0,N,2.1576749432301816,0.056432573949376098,0.13153341044116409
0.2480495942058914,0,Y,0.75919920688484122,0.066767891373474803,0
0.31006199275736429,0,N,1.2071594027111765,0.2340513708306613,0.39460023132349231
0.30386075290221698,0,N,1.4218069965446285,0.44715136888971918,0.13153341044116409
0.1240247971029457,0,N,1.45913701286349,0.20682195522514121,0.13153341044116409
0.76497564667118656,0,N,1.6154564561987212,0.27713755649891758,0
0.1061652263201215,0,N,1.0457070821321011,0.1096294270350097,0.13153341044116409
0.81168028464022823,0,Y,0.48669008775715378,0.2892229362595734,0
0.59303696982744525,0,N,1.5482624268247711,0.75020512297677888,0
0.0228701725857831,0.40000000000000002,Y,0.42322906001508959,0.042841024787747102,0
0.15944627915554699,0,N,0.34903565258135288,0.1828937461094928,0.13153341044116409
0.32922692452969698,0.40000000000000002,Y,0.82499336064683404,0.1922049369591258,0.13153341044116409
0.3052188244304942,0,N,1.0578393374357311,0.11518205620180411,0.13153341044116409
0.71190233537090841,0,N,1.0475735829480446,0.51022894385132189,0.65766705220582056
0.52617520170924725,0.80000000000000004,N,0.42276243481110382,0.3618825947747969,0.26306682088232819
0.0918403622547313,0.80000000000000004,Y,0.70553730842647788,0.1178436963544796,0
1.0108020963890074,0.80000000000000004,Y,0.67427341975943178,0.62615535830912838,0.26306682088232819
0.41002597922233852,0.40000000000000002,N,0.97151367469836436,0.62369845396935131,0
0.061857367555094099,0,N,1.9308950940930991,0.088994220059718104,0
0.30836905427690908,0.40000000000000002,Y,0.59308063426590851,0.18105530055315991,0.26306682088232819
0.30696137282979058,0,N,1.2654875532093968,0.3248319761197897,0.39460023132349231
0.67506697063133358,0,N,1.3919429834895394,0.39462965918417919,0.39460023132349231
0.85670128598859752,0.40000000000000002,N,1.3718780997181514,0.71143084507365395,0.13153341044116409
0.1853860654696281,0,N,1.6583859749654115,0.17315093189037231,0.13153341044116409
0.52617520170924725,0,N,0.80072885003957406,0.53575834365232677,0.52613364176465638
0.1240247971029457,0,N,2.1287441805830638,0.18610388431974759,0.26306682088232819
0.63209237843516286,0.80000000000000004,N,0.79139634595985897,0.2275092225273555,0
0.88228140039108005,0,N,1.695715991284273,0.43902160437025439,0.39460023132349231
0.23846557800976129,0,N,1.2738868068811409,0.21571166626468699,0.13153341044116409
0.65989873794564324,0.40000000000000002,N,0.52588660489195826,0.59319945591209011,0
0.68734542554452505,0,N,1.1693627611883295,0.69083546648600824,0.13153341044116409
0.66278851571814201,0,Y,1.6205893334425647,0.41686986067960258,0
0.27905579348162779,0,N,0.3051728834066908,0.1239497461885624,0.26306682088232819
0.2123862637989393,0.40000000000000002,Y,0.6962048043467628,0.23383231469860941,0.52613364176465638
0.2821564134092015,0,N,1.7955737849372269,0.44276398110904941,0
0.50775751933945978,0,N,1.5379966723370844,0.25883917202050077,0.26306682088232819
0.0098227639305532993,0,N,0.90291976971245702,0.027702433647560899,0.39460023132349231
0.32816961313439441,0,N,0.96451429663857824,0.5756364794902048,0
0.42788555000516271,0,N,1.4227402469526,0.30373449134182251,0.52613364176465638
0.27905579348162779,0,N,0.40643055267160211,0.37256637329829878,0
0.053231442916584298,0,N,1.2486890458659092,0.067185567348786807,0.13153341044116409
0.15503099637868209,0,N,1.088169975694806,0.2127413934002543,0.26306682088232819
0.9754488279748128,0,Y,1.1077682342622082,0.27166547912736178,0.26306682088232819
0.2719863800467599,0,N,2.046618144681569,0.44136536327171921,0.26306682088232819
0.34612840375490089,0.40000000000000002,N,0.39663142338790092,0.2012396412301013,0.78920046264698474
0.2506541149450533,0.40000000000000002,N,0.77599771422832886,0.22548476199201761,0.52613364176465638
0.4928094306686272,0,N,1.2328237889303937,0.83966236668912864,0
0.25866921745783111,0.40000000000000002,N,0.46335882755786539,0.3480465559976193,0
0.2956255063745814,0.80000000000000004,N,0.93371703317551735,0.39249548412032631,0.13153341044116409
0.1444888886249317,0.80000000000000004,N,0.71953606454605101,0.14035844521867491,0.26306682088232819
0.33946207091061759,0.40000000000000002,N,1.6005244496711768,0.35610397307136049,0.52613364176465638
0.52617520170924725,0.80000000000000004,Y,1.0125766926491122,0.44640551893380509,0.52613364176465638
0.36423912475185849,0,N,1.3933428591014969,0.31656050010870118,0.26306682088232819
0.48933983696967231,0.40000000000000002,Y,0.76433208412868459,0.50031555374728376,0.13153341044116409
0.37207439130883718,0.40000000000000002,N,0.96591417225053544,0.13815639780883379,0.52613364176465638
0.67506697063133358,0.40000000000000002,Y,0.99064530806178075,0.37707458877182659,0.52613364176465638
0.48096196192536828,0.40000000000000002,N,1.5169985381577249,0.49225440742376309,0
0.49645886032338138,0,Y,0.94818241449907636,0.42257807414720072,0.39460023132349231
0.13937286574443519,0,N,1.3462137134989345,0.20456367072862411,1.0522672835293128
0.11991957631883821,0,N,0.75499958004896917,0.14486136515751569,0.26306682088232819
0.1100844099085746,0,N,1.6728513562889706,0.1353980209168763,0.13153341044116409
0.35656509043111378,0.40000000000000002,N,0.62854414976882655,0,0.39460023132349231
0.2480495942058914,0,N,0.398497924203844,0.33527387550258858,0.13153341044116409
0.49974551744660939,0.80000000000000004,N,0.91598527542405839,0.42521346038142788,0
0.27905579348162779,0,Y,0.092858415593167307,0.074226390932616904,0.39460023132349231
0.58911778623899214,1.2,N,1.0639054650875459,0.2482580224509327,0.26306682088232819
0.34828023398463698,0,N,0.80306197605950314,0.22773349960909889,0.52613364176465638
0.43718740978788367,0.40000000000000002,N,0.72000268975003678,0.32142239763132352,0
0.19355309835885701,0,N,1.5076660340780097,0.17969949450329911,0.65766705220582056
1.1831345519635508,0,N,0.75126657841708311,0.44896438096255548,0.78920046264698474
0.16976514227451209,0,N,1.2272242864825642,0.32160990431024028,0
0.1444888886249317,0.80000000000000004,Y,0.84085861758235025,0.14035844521867491,0
0.48933983696967231,0.80000000000000004,Y,0.72233581576996542,0.35726578354768801,0.52613364176465638
1.2092417717537207,0,N,1.0261088235646991,0.37256637329829878,0
0.14882975652353481,0,Y,1.1651631343524571,0.1165584477104482,0.39460023132349231
0.16654049754983549,0,Y,1.1035686074263362,0.13541166997106949,0.13153341044116409
0.71190233537090841,0,N,0.5487512398872606,0.51022894385132189,0.65766705220582056
1.3271149389203605,0,N,0.61781177007715404,0.4080091632033418,0.39460023132349231
0.74414878261767436,0,N,1.1268998676256246,0.2586170579036296,0.52613364176465638
0.94568907790996104,0,Y,1.5505955528447,0.46952686756714529,0.39460023132349231
0.52617520170924725,0.40000000000000002,N,1.4297396250123866,0.27886897258657678,0.52613364176465638
0.45188434824458268,0,Y,0.42322906001508959,0.290038075676392,0
0.32816961313439441,0,N,0.69060530189893343,0.14364018502469739,0.26306682088232819
1.826265137340876,0,Y,1.8637010647191488,0.35705269421528329,0.52613364176465638
0.58911778623899214,0,Y,0.30657275901864822,0.33113023148751158,0
0.15935636117764729,1.2,N,1.6653853530251983,0.62692164455383448,0
0.3445408863519831,0,N,1.7591770190263376,0.66388656504890731,0
0.28844447062232081,0,N,1.8156386687086148,0.38385854163083988,0.26306682088232819
0.74414878261767436,0.80000000000000004,N,0.69153855230690509,0.74549135125540111,0.26306682088232819
0.27905579348162779,0,N,0.30050663136683331,0.28650677447512057,0
0.55960608576834625,0.40000000000000002,Y,1.5846591927356608,0.28378337794609548,0
0.3960173783895608,0,N,1.863234439515163,0.25644126441223669,0
0.15503099637868209,0,N,0.59774688630576622,0.17864538476060551,0.13153341044116409
0.43408678986031002,0,N,1.6607191009853406,0.37256637329829878,0.13153341044116409
0.2954270666992167,0.40000000000000002,Y,0.44002756735857718,0.086889282314137103,0
0.85670128598859752,0,Y,1.5244645414214972,0.3046940273101062,0
0.30695827220986299,0,N,1.126433242421639,0.13513622758235039,0
0.15503099637868209,0.40000000000000002,Y,1.0125766926491122,0.081006838296837302,0.65766705220582056
0.37575172654293948,0,N,1.8707004427789355,0.15495099960613631,0.39460023132349231
0.27905579348162779,0,N,1.0289085747886135,0.29798137770687833,0
0.1240247971029457,0.40000000000000002,N,0.36116790788498271,0.10619135707822749,0
0.15503099637868209,0,Y,1.4362723778681874,0.089143390050900995,0.13153341044116409
0.037207439130883702,0,N,1.0503733341719588,0.054337033913239498,0
0.36423912475185849,0.80000000000000004,N,0.81519423136313296,0.47502005249245349,0.39460023132349231
0.1012042344360037,0.40000000000000002,N,1.1017021066103931,0.1268535638219232,0.13153341044116409
0.27905579348162779,0,N,1.3336148329913189,0.2256565312368646,0.26306682088232819
0.31936075192015762,0,N,1.9122300859336685,0.42104289118294252,0.39460023132349231
0.1093898710447981,0,N,0.46242557714989402,0.1685018253601723,0.26306682088232819
1.0072301822324428,0,Y,1.3480802143148776,0.4991341274171156,0.39460023132349231
0.47749546884634098,0,N,0.44469381939843489,0.4889189664209147,0
0.75965188225554248,0.40000000000000002,Y,0.33830327288968021,0.31662762660473343,0.13153341044116409
0.2480495942058914,0.80000000000000004,Y,1.0429073309081869,0.1914314159698472,0.13153341044116409
0.13937286574443519,0,N,0.6420762806844138,0.1362562704611468,0
0.52617520170924725,0,Y,0.6248111481369405,0.20584019292817129,1.3153341044116411
0.15503099637868209,0.40000000000000002,Y,0.89592039165267068,0.052289601199259503,0.26306682088232819
0.051603617454608099,0,N,1.4017421127732406,0.098999797218307206,0
0.27905579348162779,0,Y,1.1894276449597174,0.18610388431974759,0
0.184499288170342,0,N,1.1735623880242012,0.25883917202050077,0
0.068151626008068594,0,N,1.1702960115963008,0.099025901966764196,0.65766705220582056
0.15852849565698521,0,N,0.19504933526605009,0.15161578235827469,0
0.2480495942058914,0,N,0.912252273792172,0.1914314159698472,0
0.1085216974650775,1.2,N,0.0578615252942348,0.20305504002279651,0
0.34106819203310068,0,N,1.1087014846701797,0.3082689607337985,0.26306682088232819
0.32629683869813991,0.40000000000000002,N,0.75499958004896917,0.35776125167340178,0.39460023132349231
0.81168028464022823,0.40000000000000002,N,0.83712561595046386,0.63310108602357928,0
0.41002597922233852,0.80000000000000004,N,0.76666521014861333,0.23539628747116589,0.13153341044116409
0.61826361355818449,0,N,1.4208737461366574,0.5202446645693114,0.13153341044116409
0.30076013297464338,0,N,1.9112968355256967,0.44300772487464229,0.13153341044116409
0.59531902609413945,0.40000000000000002,N,0.90711939654832885,0.47045918001203813,0.65766705220582056
0.81168028464022823,0,Y,1.3317483321753758,0.5064091478871029,0.39460023132349231
0.70530111554510411,0,Y,1.6504533464976536,0.50569208773948693,0
0.32703478624090238,0.80000000000000004,Y,0.69293842791886229,0.1652688641412666,0.52613364176465638
0.19391897151031079,0.80000000000000004,N,0.53195273254377307,0.1198756899743722,0.26306682088232819
0.0155030996378682,0.40000000000000002,Y,0.70367080761053491,0.074226390932616904,0
0.15503099637868209,0.40000000000000002,Y,1.0303084504005708,0.17864538476060551,0.39460023132349231
0.95902174359852776,0,Y,1.2738868068811409,0.4759411771880076,0.26306682088232819
0.52402957271936623,0,N,1.7885744068774403,0.44468506684049769,0
0.062012398551472801,0.40000000000000002,Y,0.3541685298251962,0.060115730201671602,0.78920046264698474
0.15935636117764729,0,N,1.3322149573793614,0.15227958881903839,0
0.74414878261767436,0,Y,0.091925165185195806,0.28650677447512057,0.13153341044116409
0.1240247971029457,0,Y,0.65420853598804396,0.14881138652403739,0.65766705220582056
0.50775751933945978,0,N,1.6532530977215685,0.36992390148949039,0.13153341044116409
0.26382554839738609,0,N,1.9864234933674048,0.25293204036966033,0
0.17467652423978869,0,N,1.964025483576088,0.2057943231558825,0.26306682088232819
0.1061652263201215,0,N,0.80212872565153148,0.21961738414382731,0.13153341044116409
1.0542107753750387,0,N,0.77879746545224315,0.13016513762618229,0
0.54900816685589948,0,N,1.0410408300922438,0.55772809995373562,0.13153341044116409
0.4069749692136061,0,Y,1.3513465907427782,0.087437854956711997,0.39460023132349231
0.30695827220986299,0,N,1.7703760239219957,0.54162072430581254,0.13153341044116409
0.0544282822086277,0,N,2.0508177715174409,0.29322926929776649,0.26306682088232819
0.28147737764506281,0,N,0.91131902338420079,0.078765111669341595,0.26306682088232819
0.67153226391389964,0.80000000000000004,Y,0.61454539364925376,0.56295703023966326,0.13153341044116409
0.52710538768751936,0,N,0.28744112565523178,0.53665336359942384,0
0.1085216974650775,0,Y,1.2351569149503223,0.1338943874057533,0.13153341044116409
0.093018597827209296,0.40000000000000002,N,0.68687230026704726,0.099088031268091806,0
0.71190233537090841,0.40000000000000002,Y,1.1250333668096817,0.19820321147457901,0.39460023132349231
0.1240247971029457,0,N,0.96824729827046419,0.082513604377775204,0.52613364176465638
0.8460475559174544,0,N,1.766176397086124,0.32421694824614278,0.39460023132349231
0.27905579348162779,0,N,0.58608125620612206,0.14881138652403739,0
0.43408678986031002,0,N,1.7087814969958746,0.48606526990459142,0.39460023132349231
0.29535885306081,0.40000000000000002,N,1.0307750756045566,0.31366809397966589,0.39460023132349231
0.54474791507541331,0,Y,0.61734514487316805,0.27663515196861371,0.26306682088232819
0.068151626008068594,0,Y,2.0942139154881172,0.095050521701741497,0.13153341044116409
0.071835162482026094,0.40000000000000002,N,1.0559728366197882,0.098594800692245799,0.39460023132349231
0.89917977899635648,0,Y,0.71533643771017896,0.4968747241456648,0.26306682088232819
0.13952789674081389,0.80000000000000004,N,0.84225849319430723,0.20475013321760269,0
0.89297853914120917,0,N,1.7274465051553054,0.37008023164024989,0.13153341044116409
1.0342427830414644,0,Y,1.4348725022562301,0.42671508009767001,0.39460023132349231
0.1767353358716976,0.40000000000000002,N,0.60801264079345307,0.18472264478639011,0.13153341044116409
0.38874022341954551,0,N,1.8776998208387219,0.40351914646873832,0
0.28902118592884951,0.40000000000000002,Y,0.33876989809366592,0.38455218208983999,0.26306682088232819
0.33894426738271272,0,N,1.9187628387894691,0.21152491212215821,0.39460023132349231
0.1085216974650775,0.40000000000000002,N,0.65560841160000094,0.16745763542189249,0
0.55380172526392835,0,N,1.3434139622750201,0.31225194866837158,1.183800693970477
0.53731882972894685,0,Y,0.46709182918975151,0.54648068261854943,0.13153341044116409
0.32816961313439441,0,Y,0.31310551187444891,0.2156395425739501,0.39460023132349231
0.1177305386499712,0,N,1.5795263154918175,0.064693085966112701,0
0.43408678986031002,0,Y,0.53381923335971604,0.27933512880902323,0
0.3036127033080111,0,N,2.2090037156686155,0.17851277263844401,0
0.34971892163103119,0,N,2.078348658552601,0.2285986855579594,0.13153341044116409
0.4274204570160266,0,Y,1.0783708464111048,0.3553637169901156,0
0.039191835884530797,0.40000000000000002,Y,0.88845438838889812,0.041856502845940398,0.26306682088232819
0.56762428890105165,0.40000000000000002,N,0.58654788141010772,0.1104104065238474,0.26306682088232819
0.40308059058457357,0,N,1.9859568681634201,0.52173636448113969,0.39460023132349231
0.27905579348162779,0,N,0.13858768558377241,0.2127413934002543,0.13153341044116409
0.24323743207829709,0,Y,0.4204293087911749,0.18288845057480579,0
0.2159705804352145,0.40000000000000002,N,0.98131280398206555,0.37095347276863427,0
0.58911778623899214,0,Y,0.31123901105850571,0.2127413934002543,0.13153341044116409
0.039191835884530797,0,N,1.7829749044296117,0.084071610350684403,0.39460023132349231
0.1772221332003267,0,N,0.40036442501978697,0.1427529219171419,0.26306682088232819
0.310303841111715,0,N,1.777842027185768,0.51277684188572037,0
1.9889856711399403,0,Y,0.91645190062804438,0.55815442778853619,0.39460023132349231
0.85670128598859752,0,N,1.2542885483137387,1.0673256072323805,0.26306682088232819
1.1317262735643796,0,N,0.86139012655772385,0.18610388431974759,0.26306682088232819
0.74414878261767436,0,Y,1.1992267742434184,0.16915272861669869,0.26306682088232819
0.20154029529228679,0,Y,0.87678875828925407,0.22339638211545779,0
0.4147389215122505,0,N,1.8762999452267648,0.42853495399010072,0.52613364176465638
0.16052219427041509,0,N,0.4768909584734527,0.23000088347507811,0.78920046264698474
0.31936075192015762,0,N,1.4988001552022798,0.84244438702468838,0
0.89917977899635648,0,Y,1.766176397086124,0.60438459477595741,0.26306682088232819
0.2480495942058914,0,Y,1.6952493660802872,0.22339638211545779,0.39460023132349231
0.084677930222036096,0,N,1.3126166988119596,0.11095204276183231,0
1.1782355724779845,0.40000000000000002,N,0.92018490225993022,0.41518640274410862,0.26306682088232819
0.58911778623899214,0,Y,0.63974315466448506,0.5963213600725602,0
0.20705939876336779,0.40000000000000002,N,0.95751491857879178,0.1905292358631733,0.52613364176465638
0.67475690863857618,0.40000000000000002,N,0.83852549156242118,0.24217046969575659,0.78920046264698474
0.42216800685871692,0,N,1.9439605998047005,1.0897458569071614,0.13153341044116409
0.48902977497691491,0,N,1.5389299227450557,0.46295234937575291,0.13153341044116409
0.41412499876659092,1.2,Y,0.5706826244745915,0.35656043324437992,0.65766705220582056
0.94547203451503081,0.40000000000000002,N,0.80679497769138908,0.29325455361127201,0.39460023132349231
0.41548307029486808,0,N,1.3200827020757315,0.39019558119626929,0.13153341044116409
0.10643187963389281,0,N,0.24124523046064081,0.073109256868648595,0
0.28019062037511983,0,N,0.31310551187444891,0.29907330204233668,0.78920046264698474
0.19527394241866039,0,N,0.41949605838320347,0.2173669310718474,0
0.1240247971029457,0.80000000000000004,N,0.86185675176170951,0.074226390932616904,0
0.16495298014691781,0,Y,0.11478980018049841,0.2353299814100851,0.26306682088232819
0.30732724598124439,0,N,0.73773444750149586,0.2321718289417575,0
0.39567631019752769,0,N,2.1320105570109646,0.44589312001409198,0.13153341044116409
0.1093898710447981,0,N,1.4418718803160169,0.074690458775186694,0.26306682088232819
0.26192176776185588,0,N,1.1432317497651263,0.17579996717879279,0
0.85670128598859752,0,Y,1.319616076871746,0.60974665927901572,0.13153341044116409
0.58601716631141854,0,N,0.54455161305138888,0.49438850790262029,0.39460023132349231
0.41002597922233852,0,Y,1.8721003183908929,0.2161509718887204,1.0522672835293128
0.039191835884530797,0,Y,1.2356235401543081,0.056882246887796799,0.26306682088232819
0.21704339493015501,0.80000000000000004,N,1.2832193109608561,0.27085958824999651,0.26306682088232819
0.85670128598859752,0.80000000000000004,N,0.93791666001138962,0.82093690852595536,0.13153341044116409
0.054183333234349401,0,Y,0.65747491241594391,0.045179711909511699,0.65766705220582056
0.27905579348162779,0,N,1.2384232913782225,0.1143875768287643,0.65766705220582056
0.43408678986031002,0,N,1.1404319985412117,0.44715136888971918,0.13153341044116409
0.64875510992594354,0,Y,1.2024931506713188,0.71057908442399986,0.13153341044116409
0.077515498189341003,0,N,0.70927031005836427,0.1084111557170194,0.39460023132349231
1.0342427830414644,0,Y,1.1469647513970125,0.91479929124792558,0
0.4147389215122505,0.40000000000000002,N,0.92951740633964564,0.53575834365232677,0.39460023132349231
0.2821564134092015,0,Y,0.30423963299871931,0.1670432411863865,0
0.1012042344360037,0,N,2.1502089399664093,0.1056515108801368,0.52613364176465638
0.19527394241866039,0,N,1.6891832384284724,0.12060005945155609,0
0.43408678986031002,0,N,0.41529643154733148,0.37256637329829878,0
0.71190233537090841,0,N,0.40456405185565891,0.51022894385132189,0.52613364176465638
0.098847763291047705,0,N,0.8287263622787201,0.15582237610963079,0
0.65584932832023202,0.40000000000000002,Y,0.3201048899342353,0.47170474943841489,0
0.062012398551472801,0,N,1.4712692681671198,0.1115188887283271,0
0.2318767606636673,0.40000000000000002,N,0.46849170480170887,0.21769704426233499,0.26306682088232819
0.1240247971029457,0,N,0.94304953725523277,0.14881138652403739,0.26306682088232819
0.43408678986031002,0,N,1.8081726654448429,0.62118300040803509,0.39460023132349231
0.40618121051214717,0,Y,0.40036442501978697,0.42030077047680781,0.26306682088232819
0.7241807902841001,0,N,1.5295974186653407,0.25915459196685697,1.183800693970477
1.1614612186698108,0,N,0.27017599310775831,0.40942202677483008,0.39460023132349231
0.17554469781950929,0,N,1.9042974574659104,0.1416000616402853,0.13153341044116409
0.20774153514743399,0,N,0.2585103630081142,0.2293631817627714,0.26306682088232819
0.15503099637868209,0.80000000000000004,N,0.55528399274306139,0.17864538476060551,0.13153341044116409
0.15503099637868209,0.80000000000000004,N,0.76619858494462767,0.1115188887283271,0
0.55811158696325569,0.40000000000000002,Y,0.83572574033850644,0.47201300922519418,0.13153341044116409
0.63124900981486276,0.40000000000000002,Y,0.93791666001138962,0.63685979687640892,0.52613364176465638
0.54459288407903461,0,N,1.7157808750556611,0.2608859334695206,0
0.33670561979500457,0.80000000000000004,Y,1.2650209280054112,0.12600225068224269,0
0.34044806804758598,0,Y,1.41060799164897,0.35705269421528329,0.39460023132349231
0.27905579348162779,0.40000000000000002,N,1.1231668659937384,0.1239497461885624,0.13153341044116409
0.2027402352042578,0,N,1.8039730386089707,0.1245911771506486,0
0.88367667935848815,0.40000000000000002,N,0.32850414360597913,0.43969286933057727,0.26306682088232819
0.24314441348046989,0.40000000000000002,N,0.29864013055089011,0.263427640949285,0.13153341044116409
0.37728343278716081,0,Y,0.1497866904794308,0.24517520082815261,0.65766705220582056
0.48933983696967231,0.80000000000000004,Y,0.87352238186135356,0.83409832601800871,0.26306682088232819
0.60046605517391172,0,N,1.805839539424914,0.54214065631008013,0
0.58911778623899214,0.40000000000000002,N,0.65607503680398693,0.23271950656438539,0.13153341044116409
0.61826361355818449,0,N,0.76573195974064168,0.62436531841493426,0.13153341044116409
0.2821564134092015,0,N,1.221624784034735,0.25074423869397722,0.26306682088232819
0.1240247971029457,0,N,1.6938494904683301,0.31041223516711358,0
0.1361482210197586,0,N,1.0139765682610691,0.133670632418979,0
0.58911778623899214,0,N,1.3583459688025643,0.74549135125540111,0.13153341044116409
0.43408678986031002,0,N,1.8721003183908929,1.39811006268033,0
0.44261039404120989,0,Y,1.2897520638166569,0.47434073235260688,0.26306682088232819
0.15503099637868209,0,N,0.26504311586391499,0.044392392696048701,0.13153341044116409
0.14213241747997579,0,N,1.2986179426923865,0.1186364602726208,0.78920046264698474
0.093018597827209296,0.40000000000000002,N,0.15398631731530271,0.14881138652403739,0.13153341044116409
0.85670128598859752,0.40000000000000002,N,0.76713183535259899,0.42671508009767001,0.26306682088232819
0.37191315907260331,0,N,1.7507777653545935,0.27656056697302239,0
0.66663328442833325,0,N,0.3737667883925983,0.20941169544206639,0.13153341044116409
0.086569308377856105,0,N,1.9896898697953056,0.112771916654263,0.52613364176465638
0.4709221545998849,1.2,Y,0.89685364206064189,0.1337949656066299,0.52613364176465638
0.85670128598859752,0.80000000000000004,Y,1.0839703488589341,0.3046940273101062,0.39460023132349231
0.13952789674081389,0,N,1.7811084036136684,0.22754002613053481,0.13153341044116409
0.074290853464664394,0,N,0.87865525910519704,0.084071610350684403,0.26306682088232819
0.1062148362389627,0,N,1.7358457588270491,0.063118969634155794,0
0.071314258334193706,0.40000000000000002,N,0.69060530189893343,0.069964380529536296,0.52613364176465638
0.16976514227451209,0,N,2.0116212543826371,0.34460766560588568,0
0.33946207091061759,0.40000000000000002,Y,0.86885612982149596,0.34239390835173678,0.39460023132349231
0.51853217358777814,0,N,1.1716958872082579,0.20301170614035779,0
0.1444888886249317,0,N,1.3172829508518169,0.2107169328649163,0
0.1240247971029457,0.40000000000000002,Y,0.65840816282391568,0.18610388431974759,0
0.71190233537090841,0.80000000000000004,N,1.0158430690770124,0.45786102840669129,0
0.32816961313439441,0,Y,0.79279622157181628,0.23315291997376711,0.78920046264698474
0.15503099637868209,0,Y,1.6789174839407854,0.20305504002279651,0.13153341044116409
0.063761148190624395,0,N,0.8823882607370831,0.22760297586681391,0
0.4058649472795347,0,N,0.89452051604071325,0.41999646369479487,0.13153341044116409
0.071221239736366501,0.40000000000000002,N,0.22398009791316759,0.081610305496167504,0
0.24323743207829709,0,Y,0.20064883771387931,0.078175815619173805,0.26306682088232819
0.71190233537090841,0,N,1.955159604700359,0.59532691832633977,0.26306682088232819
0.52617520170924725,0,Y,1.5561950552925294,0.44640551893380509,0.13153341044116409
0.52617520170924725,0,N,1.6807839847567287,0.53575834365232677,0.13153341044116409
0.34106819203310068,0,Y,0.34390277533750951,0.35764937418001469,0.13153341044116409
0.27905579348162779,0,N,0.60987914160939594,0.18610388431974759,0
0.20588116319088989,0.80000000000000004,Y,0.58888100743003646,0.25865472332640321,0.26306682088232819
0.44074072022488298,0.40000000000000002,Y,0.89918676808057096,0.18877156585706589,0.65766705220582056
0.85670128598859752,0,N,0.89172076481679852,0.4741676951628348,0.13153341044116409
0.37207439130883718,0,N,1.7269798799513194,0.17593317598091909,1.183800693970477
0.89917977899635648,0,Y,1.1730957628202154,0.37256637329829878,0
0.3445408863519831,0,N,1.2855524369807847,0.1638911301027019,0.78920046264698474
0.71190233537090841,0,Y,1.6149898309947357,0.44640551893380509,0.39460023132349231
0.53360428705571361,0,N,0.4554261990901074,0.38768795905949022,0.13153341044116409
0.95902174359852776,0.80000000000000004,N,0.73400144586960958,0.79347434022421637,0.39460023132349231
0.18603719565441859,0,N,1.6271220862983655,0.2084793829971737,0.39460023132349231
0.27905579348162779,0,N,1.7059817457719602,0.2127413934002543,0.26306682088232819
0.27905579348162779,0,N,1.7587103938223514,0.2127413934002543,0.26306682088232819
0.0076027200624104998,0,N,0.30377300779473349,0.0261765738077517,0.13153341044116409
0.12500459300005889,0,Y,1.8469025573756608,0.1497541408683129,0.26306682088232819
0.27905579348162779,0,Y,1.676117732716871,0.16538581341435399,0
0.33486695217795343,1.2,Y,0.94491603807117597,0.20431649605323421,0.13153341044116409
0.2821564134092015,0.40000000000000002,N,0.76153233290476985,0.12519277972508899,0.13153341044116409
0.41996036547028448,0,N,1.8081726654448429,0.43355899929313879,0
0.1085216974650775,0.40000000000000002,N,0.84272511839829334,0.055580142034761797,0.26306682088232819
0.36592276137253099,0,Y,0.62061152130106845,0.13604243527878621,0
0.27905579348162779,0,N,0.74473382556128243,0.2256565312368646,0.13153341044116409
0.80240012919700032,0,N,1.1693627611883295,0.25023489775908331,0.52613364176465638
0.33176013101052459,0,Y,0.69107192710291943,0.2489641186041967,0
0.2956255063745814,0,N,1.714380999443704,0.1742432291508087,0
0.41002597922233852,0,Y,1.4941339031624223,0.23539628747116589,0.13153341044116409
0.13425684286393871,0,N,2.181472828633455,0.26466672148104531,0
0.52617520170924725,0,N,1.5851258179396468,0.60886521380111636,0.39460023132349231
0.16976514227451209,0.80000000000000004,N,0.64300953109238546,0.32160990431024028,0.13153341044116409
0.71190233537090841,0,N,0.52402010407601496,0.39676502760796151,0.65766705220582056
0.58911778623899214,0.40000000000000002,Y,0.70880368485437828,0.19853474177998279,0.26306682088232819
0.43592235685743358,0,N,0.1045240456928114,0.3205529603377143,0
0.50057338296727161,0,Y,1.0713714683513185,0.25538290332479441,0
0.1140035934970277,0,N,1.2482224206619237,0.077156760824408199,0.13153341044116409
0.15503099637868209,0,N,0.98644568122590925,0.1115188887283271,0.26306682088232819
0.50775751933945978,0,N,1.9402275981728143,0.36992390148949039,0.65766705220582056
1.0870711453674642,0,N,1.2043596514872621,0.48864501573210739,0.13153341044116409
0.16495298014691781,0.40000000000000002,Y,0.35556840543715362,0.093916829768751903,0.13153341044116409
0.168034996354926,0.80000000000000004,Y,1.0303084504005708,0.095399579481109303,0.39460023132349231
0.34971892163103119,0,N,1.8469025573756608,0.25403835960926779,0.26306682088232819
0.037145426732332197,0.40000000000000002,N,0.37936629084042761,0.081610305496167504,0.26306682088232819
0.11640967456082479,0,N,0.3233712663621357,0.100957653352582,0.39460023132349231
0.47118880791365619,0,N,1.4834015234707496,0.40231586673486192,0.26306682088232819
0.15503099637868209,0,Y,0.33783664768569438,0.089143390050900995,0
1.0072301822324428,0,Y,1.3499467151308209,0.31182435288864591,0
0.51131703101631432,0,N,1.6261888358903942,0.2368324961462743,0.65766705220582056
0.16495298014691781,0,N,0.1292551815040571,0.2353299814100851,0.26306682088232819
0.14455710226333829,0.40000000000000002,Y,0.96171454541466361,0.1052201858506317,0.52613364176465638
0.031006199275736401,0,N,1.261754551577511,0.082513604377775204,0.26306682088232819
0.52617520170924725,0,N,1.7685095231060526,0.3347144880356529,0
0.50775751933945978,0,N,1.7447116377027785,0.32363861619032702,0
0.119848262060504,0.40000000000000002,Y,1.3499467151308209,0.1206008798865076,0
0.27905579348162779,0.80000000000000004,Y,0.60474626436555257,0.14588646133692421,0.65766705220582056
0.13952789674081389,0.40000000000000002,Y,0.95378191694690539,0.20475013321760269,0
0.15503099637868209,0,N,0.6864056750630616,0.14881138652403739,0.26306682088232819
0.26355269384375968,0,N,1.0279753243806422,0.078370034947693804,0
0.42904208123814769,0,Y,1.3653453468623509,0.61444133724152217,0.26306682088232819
0.0155030996378682,0.40000000000000002,N,0.77553108902434276,0.022016894018622502,0.39460023132349231
0.062012398551472801,0,N,1.805839539424914,0.034332070150695497,0.39460023132349231
0.37207439130883718,0,N,0.65747491241594391,0.2151091686702995,0.13153341044116409
0.4000047756164205,0,N,1.8207715459524587,0.3836380683838716,0
0.56796225647315712,0.80000000000000004,N,0.57161587488256316,0.31982150528594921,0
0.27905579348162779,0,N,0.1227224286482563,0.14881138652403739,0.39460023132349231
0.27905579348162779,0,N,0.46149232674192248,0.2127413934002543,0.39460023132349231
0.16495298014691781,0,Y,2.0890810382442742,0.1469467616342518,0.13153341044116409
0.1240247971029457,0,N,1.9560928551083308,0.18610388431974759,0.13153341044116409
1.2092417717537207,1.2,N,0.91318552420014376,0.29798137770687833,0.26306682088232819
0.15472093438592471,0.80000000000000004,Y,0.68547242465508995,0.17834704477823979,0
0.55610548587011566,0.80000000000000004,N,0.73446807107359557,0.15656240843588889,0.26306682088232819
0.27905579348162779,0,N,1.1096347350781512,0.2127413934002543,0.39460023132349231
0.78568468716745077,0,Y,1.0326415764204999,0.32706452879282771,0.26306682088232819
0.1111262182042393,0,N,1.9971558730590779,0.1705902052367321,0.13153341044116409
0.093018597827209296,0,Y,0.29117412728711778,0.19853474177998279,0.13153341044116409
0.51470290797722473,0,N,1.3560128427826357,0.23831338123374191,0
0.43408678986031002,0,Y,0.96824729827046419,0.3992038823788055,0.26306682088232819
0.059135023258684499,0,Y,0.71673631332213639,0.10805814493288519,0.13153341044116409
0.17053409601655031,0.40000000000000002,Y,0.72420231658590872,0.1935623838788896,0.26306682088232819
0.6018427304217544,0,Y,1.4316061258283297,0.43458700428737529,0.65766705220582056
0.1444888886249317,0,N,1.9915563706112489,0.23416973721866491,0.13153341044116409
0.1085216974650775,0,Y,0.00046662520398559998,0.1115188887283271,0
0.3199839765255999,0,N,1.4792018966348781,0.2107169328649163,0.39460023132349231
0.586776818193674,0,Y,1.1520976286408555,0.2698356854305175,0
0.48933983696967231,0.80000000000000004,Y,0.46429207796583699,0.27779368070513533,0.39460023132349231
0.35045996979372129,0.80000000000000004,Y,1.1399653733372259,0.2476445608621933,0
0.071314258334193706,0,Y,1.3798107281859096,0.081684890491758894,0.52613364176465638
0.13952789674081389,0.40000000000000002,N,0.9915785584697524,0.081684890491758894,0.26306682088232819
0.199233434066172,0,Y,0.72373569138192273,0.15788092198795409,0.26306682088232819
0.33323602609604969,0,N,1.0989023553864783,0.3501133062254575,0.13153341044116409
0.27905579348162779,0,N,1.8557684362513911,0.18610388431974759,0.13153341044116409
0.34607879383605972,0,Y,1.3256822045235608,0.251606068318036,0.13153341044116409
0.30379253926381039,0.40000000000000002,N,0.81286110534320433,0.42351187829200532,0.52613364176465638
0.66278851571814201,0,Y,1.5328637950932409,0.45069922796001199,0.9207338730881488
0.38136694923177528,0,N,1.8077060402408569,0.3964246216880824,0.26306682088232819
0.18838746555951941,0,N,1.6910497392444157,0.1504266737735607,0
0.58911778623899214,0.40000000000000002,N,1.341547461459077,0.13525049179559651,0.13153341044116409
0.46088234727440142,0,N,0.48762333816512532,0.1816769664914144,0.9207338730881488
0.25633445065236821,0,N,1.638321091194024,0.27611902379912112,0.39460023132349231
0.76110297238164704,0,N,0.063461027742064094,0.3460792275689043,0
0.46302797626428238,0,N,0.99251180887772417,0.474998422843732,0.78920046264698474
0.093018597827209296,0,Y,0.27950849718747361,0.1239497461885624,0.52613364176465638
0.52988974438248038,0,Y,1.6014577000791486,0.38513498924539141,0.13153341044116409
0.41002597922233852,0.40000000000000002,N,1.2374900409702512,0.30275481742472921,0
0.67506697063133358,0,N,1.3023509443242722,0.47143296171447968,0.26306682088232819
0.2997679345978197,0.40000000000000002,N,1.2682873044333116,0.31791048852890591,0.26306682088232819
0.18603719565441859,0.40000000000000002,N,0.86885612982149596,0.14881138652403739,0.26306682088232819
0.062012398551472801,0,N,1.7876411564694692,0.055580142034761797,0
0.27905579348162779,0.40000000000000002,N,0.21138121740555199,0.2482580224509327,0.26306682088232819
0.77503095709630787,0,Y,1.5342636707051984,0.80752123078393101,0
0.35159169606728569,0,N,1.8081726654448429,0.45980844264158333,0.26306682088232819
0.43408678986031002,0.40000000000000002,N,1.1385654977252688,0.20305504002279651,0
0.58911778623899214,0,Y,0.79372947197978772,0.37256637329829878,0.26306682088232819
0.3590207814137521,0,N,1.050839959375945,0.23419256022731591,0.39460023132349231
0.3255650923952324,0,Y,1.7470447637227071,0.237898986998236,0
0.36091215956957201,0,N,1.4176073697087568,0.4710185674789738,0
0.020107520230315,0,N,2.0349525145819252,0.076487211318984005,0
0.27905579348162779,0,Y,0.62994402538078398,0.14881138652403739,0.26306682088232819
0.31936075192015762,0,Y,0.60614613997750999,0.42104289118294252,0.13153341044116409
0.15503099637868209,0,N,1.9019643314459811,0.29798137770687833,0.26306682088232819
0.32629683869813991,0,Y,2.0354191397859105,0.28613728040696068,0.26306682088232819
0.89917977899635648,0,N,0.33457027125779398,0.1594663752392409,0.26306682088232819
0.17980494959999549,0,N,1.8123722922807144,0.4053241033620506,0.13153341044116409
0.3036127033080111,0,N,1.5006666560182229,0.080133522583457406,0.65766705220582056
0.41002597922233852,0,Y,0.3928984217560148,0.26486563966428761,0
0.51093255414529515,0.40000000000000002,N,1.5412630487649848,0.32554799207746737,0.65766705220582056
0.062012398551472801,0,Y,1.2370234157662654,0.044392392696048701,0.65766705220582056
0.1240247971029457,0.40000000000000002,N,1.0298418251965853,0.14881138652403739,0.13153341044116409
0.70310587663638202,0.40000000000000002,Y,0.33270377044185101,0.4411155781214835,0.26306682088232819
0.54459288407903461,0,N,0.91831840144398724,0.34579035988097878,0.65766705220582056
0.31936075192015762,0.40000000000000002,N,0.97571330153423641,0.28057570104069529,0.26306682088232819
0.15503099637868209,1.2,Y,0.66307441486377328,0.17864538476060551,0.39460023132349231
0.15472093438592471,0,Y,0.37609991441252721,0.15920003221998391,0.52613364176465638
0.67762498207158173,0,N,0.93231715756356015,0.4257920907772263,0.65766705220582056
0.58911778623899214,0,N,0.47409120724953813,0.25683104559919739,0
0.4143730483607968,0,Y,1.6737846066969422,0.21828499778258209,0.39460023132349231
0.1240247971029457,0,N,0.36116790788498271,0.092872639830472004,0.39460023132349231
0.82853525456651855,0.80000000000000004,N,0.88098838512512612,0.25809332206458663,0
0.27905579348162779,0.40000000000000002,Y,1.0424407057042009,0.4968747241456648,0
0.19432205210089529,0,N,1.2370234157662654,0.2164510273259847,0.13153341044116409
0.31936075192015762,0,N,0.32803751840199341,0.49540786103736828,0
0.58911778623899214,0,Y,1.5449960503968707,0.4258413914593121,0.65766705220582056
0.54459288407903461,0,N,0.66634079129167367,0.2304073717010513,0.39460023132349231
0.31936075192015762,0,N,1.0975024797745216,0.30064249576458463,0.9207338730881488
0.35331254012708901,0.40000000000000002,N,0.5394187358075454,0.30779922443156371,0.13153341044116409
0.1918167511994158,0.40000000000000002,Y,0.63554352782861301,0.1113075894358166,0.39460023132349231
0.74414878261767436,0,Y,0.50068884387672674,0.2660164115612676,0.26306682088232819
0.50775751933945978,0,N,1.8287041744202159,0.43163768980670381,0.39460023132349231
0.039191835884530797,0,N,0.44656032021437791,0.055928230209186899,0.13153341044116409
0.2821564134092015,0,N,0.83199273870662049,0.57910945522492374,0.26306682088232819
0.15503099637868209,0,N,1.5930584464074049,0.27933512880902323,0.13153341044116409
0.33176013101052459,0,N,1.9257622168492561,0.21779877819632171,0
0.4960991884117828,0,N,0.4656919535777943,0.36191138458309519,0.26306682088232819
0.1485817069293289,0.80000000000000004,Y,0.67474004496341755,0.071640752890449105,0.26306682088232819
0.58911778623899214,0,N,1.5473291764167996,0.53239135319634334,0.26306682088232819
0.27905579348162779,0,N,0.67334016935146013,0.29798137770687833,0.39460023132349231
0.55085923695266092,0.40000000000000002,N,0.3788996656364419,0.46619791545891348,0
0.45188434824458268,0,Y,1.891231951754309,0.42985868849185721,0.26306682088232819
0.093018597827209296,0.40000000000000002,N,1.3172829508518169,0.099088031268091806,0.26306682088232819
1.4548108700175533,0.40000000000000002,Y,0.2067149653656942,0.89316964252641362,0
0.43408678986031002,0,Y,1.6037908260990772,0.37256637329829878,0.39460023132349231
0.43408678986031002,0,N,1.97709098928769,0.79876636941641432,0.13153341044116409
0.1012042344360037,0.80000000000000004,Y,0.244978232092527,0.073601965349525497,0.13153341044116409
0.58911778623899214,0,N,0.5963470106938088,0.37256637329829878,0.78920046264698474
0.89220958539917095,0,Y,1.3863434810417106,0.61652561494332447,0.26306682088232819
0.36091215956957201,0,Y,1.4773353958189346,0.1174856883756408,0
0.2347851421557314,0,N,0.21604746944540951,0.25538439502470622,0.13153341044116409
0.1240247971029457,0.80000000000000004,N,0.67240691894348847,0.2402381216299741,0
0.51389674679605557,0,Y,0.46102570153793659,0.21810084742846689,0.26306682088232819
0.34726943188824799,0,N,1.5468625512128138,0.45460986844886131,0.13153341044116409
0.15472093438592471,0.40000000000000002,Y,0.36956716155672648,0.1485627947337311,0.13153341044116409
0.20022563244299549,0,Y,0.99437830969366725,0.13869766112184079,0.13153341044116409
0.13425684286393871,0,Y,0.57674875212640664,0.13215409570361869,0.39460023132349231
0.52400476775994564,0,N,1.6747178571049135,0.38109039410445988,0
0.24684345305406519,0.80000000000000004,N,0.73633457188953866,0.16673229633976591,0.13153341044116409
0.12693937983486489,0,N,0.494156091020926,0.078794721912591403,0.52613364176465638
0.67153226391389964,0,Y,1.8716336931869069,0.28129917549793199,0.26306682088232819
0.16654049754983549,0,Y,0.74846682719316837,0.13541166997106949,0.13153341044116409
0.51973211349974924,0.40000000000000002,N,0.53708560978761644,0.33083979751467862,0
0.43408678986031002,0,N,1.5529286788646288,0.37256637329829878,0.26306682088232819
0.34416881196067428,0,Y,1.7437783872948069,0.64426884658347394,0.26306682088232819
0.074290853464664394,0,N,1.1684295107803575,0.055928230209186899,0
0.1240247971029457,0.80000000000000004,Y,0.78346371749210086,0.13282886615873421,0
0.039191835884530797,0,N,0.46195895194590819,0.047887221834475899,0.39460023132349231
0.30695827220986299,0,N,1.1721625124122437,0.28998743246438541,0.26306682088232819
0.0918403622547313,0,N,1.9318283445010709,0.12812218001193759,0
0.1085216974650775,0.40000000000000002,N,0.99577818530562423,0.13948826207510981,0.26306682088232819
0.66278851571814201,0,Y,0.38169941686035641,0.30308030634549021,0
0.33323602609604969,0.80000000000000004,Y,0.73306819546163826,0.31256274434500098,0
0.43718740978788367,0,Y,1.663985477413241,0.35158934328821179,0.39460023132349231
0.4709221545998849,0,N,0.34343615013352358,0.24111777706797929,0.39460023132349231
0.084820558738704505,0,N,2.1268776797671212,0.2318244866172883,0.13153341044116409
0.85670128598859752,0,N,1.8063061646289,0.85378876485414346,0.26306682088232819
0.62259207897707713,0,N,1.1968936482234891,0.31408576995497778,0.13153341044116409
0.37056128878418121,0.40000000000000002,Y,1.0592392130476886,0.16063556963013201,0.13153341044116409
0.32816961313439441,0,N,0.6075460155894673,0.14364018502469739,0.26306682088232819
0.2603776590379242,0,Y,2.0578171495772275,0.46692138991615029,0.26306682088232819
0.4148257388702225,0.40000000000000002,N,0.81006135411928959,0.38265667901187961,0.26306682088232819
0.31936075192015762,0,N,1.1782286400640589,0.24752462818928231,0.39460023132349231
0.81168028464022823,0.80000000000000004,N,0.67100704333153138,0.5064091478871029,0
0.1240247971029457,0.40000000000000002,Y,0.18711670679829201,0.18610388431974759,0.13153341044116409
0.72864568297980603,0,N,2.0097547535666931,0.73057435213711697,0
0.50775751933945978,0,N,1.5319305446852691,0.51803694869980532,0.52613364176465638
0.32776653254380977,0,N,0.3938316721639864,0.24621939076643251,0
0.19432205210089529,0,N,1.6415874676219242,0.2164510273259847,0.65766705220582056
0.20154029529228679,0,N,1.0074438154052685,0.22339638211545779,0.26306682088232819
0.40308059058457357,0,N,0.89685364206064189,0.14881138652403739,0.26306682088232819
1.1054578215379758,0,N,1.2883521882046995,0.58129009674103005,0
1.519303764511085,0.80000000000000004,N,0.60427963916156691,0.86690878767364365,0.13153341044116409
0.34106819203310068,0,N,1.1768287644521014,0.47070449006253828,0
0.1240247971029457,0,N,0.47735758367743852,0.13776176859715961,0.52613364176465638
0.46505578169691558,0.40000000000000002,Y,1.2248911604626356,0.1701086099201983,1.0522672835293128
0.1444888886249317,0,N,0.4848235869412108,0.33736225537914832,0.13153341044116409
0.21924173445880471,0.40000000000000002,N,0.21838059546533839,0.13963392657149989,0.52613364176465638
0.27905579348162779,0.80000000000000004,N,0.91085239818021524,0.12691957154302161,0.78920046264698474
0.2055897049176979,0,Y,1.6215225838505365,0.070782428761183,0.26306682088232819
0.51134803721559008,0.80000000000000004,Y,1.0858368496748774,0.4345166706365326,0.26306682088232819
0.3040436894779438,0,N,1.8184384199325292,0.229915110730148,0
0.61551026306249901,0,Y,0.43162831368683341,0.25883917202050077,0.13153341044116409
0.32816961313439441,0,Y,1.6887166132244866,0.28763890012320281,0.13153341044116409
0.67506697063133358,0.40000000000000002,Y,0.59261400906192285,0.48491270796771718,0.13153341044116409
0.1085216974650775,0,N,0.20764821577366571,0.22339638211545779,0
0.19769552658209541,0.40000000000000002,N,0.70647055883444965,0.2747108590823551,0.52613364176465638
0.27905579348162779,0.80000000000000004,N,0.77926409065622915,0.41400251510908598,0.39460023132349231
0.48933983696967231,0.80000000000000004,Y,0.66587416608768801,0.41686986067960258,0.13153341044116409
0.21309940638228131,0,N,0.15025331568341649,0.23451849665805041,0
0.15935636117764729,0,N,1.8762999452267648,0.075960492080117403,0
0.58601716631141854,0.80000000000000004,N,0.71440318730220775,0.4634668366753425,0.13153341044116409
0.30695827220986299,0.40000000000000002,Y,0.77599771422832886,0.23191823995674671,0.13153341044116409
0.1240247971029457,0.80000000000000004,N,0.78206384188014344,0.10619135707822749,0.39460023132349231
0.64917059299623847,0.40000000000000002,N,1.3065505711601446,0.54502679729948578,0.52613364176465638
0.52710538768751936,0,N,1.0993689805904645,0.609882254801001,0.52613364176465638
0.8602514958056694,0,Y,1.4908675267345222,0.35695946297079401,0.26306682088232819
0.20245807879084851,0.40000000000000002,Y,0.56135012039487642,0.1017495968357717,0.13153341044116409
0.1444888886249317,0,N,1.4871345251026358,0.093452761926182099,0
1.4953421737107959,0.40000000000000002,Y,1.6495200960896823,0.56450451972819404,0.65766705220582056
0.68734542554452505,0,N,0.66400766527174471,0.28763890012320281,0.26306682088232819
0.48933983696967231,0,N,1.5197982893816395,0.27779368070513533,0
0.13952789674081389,0,N,1.9476936014365869,0.1021957642793996,0.13153341044116409
0.36273532408698528,0,N,1.1464981261930269,0.15749807720558329,0
0.054273251212248998,0,N,1.3331482077873331,0.0289468842990038,0.13153341044116409
0.83716738044488359,0,N,1.206226152303205,0.278092020687501,0.39460023132349231
0.31936075192015762,0.40000000000000002,N,0.31217226146647747,0.3367625920145933,0.13153341044116409
0.3445408863519831,0,N,0.84739137043815072,0.2577480681199939,0
0.2109041674735592,0,N,0.31123901105850571,0.1659020161688422,0.13153341044116409
0.34044806804758598,0,N,0.98131280398206555,0.35705269421528329,0
0.2318767606636673,0,Y,1.7890410320814265,0.28707839388133322,0.13153341044116409
0.17053409601655031,0,N,1.6873167376125291,0.28481928894986469,0.13153341044116409
0.50775751933945978,0.40000000000000002,N,0.78113059147217223,0.64763583703945748,0.39460023132349231
0.20154029529228679,0,N,1.3494800899268351,0.16915272861669869,0.13153341044116409
0.23014041350422601,0,N,1.147898001804984,0.12527832871503239,0
0.96880419947002261,0.40000000000000002,N,0.80632835248740342,0.96165358547845581,0.26306682088232819
0.068151626008068594,0,N,0.1343880587479005,0.095050521701741497,0
0.13952789674081389,0,N,1.0004444373454819,0.1363805290638021,0.26306682088232819
0.85670128598859752,0,N,1.7223136279114617,0.4741676951628348,0.13153341044116409
0.1240247971029457,0,Y,1.208092653119148,0.074226390932616904,0.9207338730881488
0.1444888886249317,0.40000000000000002,Y,1.115700862729966,0.14035844521867491,0.26306682088232819
0.66625810941709684,0.40000000000000002,N,0.9332504079715318,1.1178146520530674,0
1.1831345519635508,0.40000000000000002,Y,0.50675497152854165,0.72979120968340705,0.39460023132349231
0.20183175356547869,0.40000000000000002,Y,0.76153233290476985,0.15966671053739939,0
0.30695827220986299,0,Y,0.44936007143829249,0.1474539396042735,0.65766705220582056
0.18681235063631199,0,N,0.36536753472085459,0.086967969484485999,0.13153341044116409
0.1240247971029457,0,Y,2.0475513950895405,0.46004263952774038,0
0.86817357972062004,0,N,1.6149898309947357,0.48030022267035249,0.78920046264698474
0.58911778623899214,0,Y,1.9700916112279037,0.4258413914593121,0
0.20154029529228679,0,Y,1.9056973330778679,0.2147903923991418,0.26306682088232819
1.3565832307120202,0.40000000000000002,Y,1.4834015234707496,0.83409832601800871,0.13153341044116409
0.1175755076535925,0,N,1.6033242008950914,0.19820321147457901,0.52613364176465638
0.62595315097856696,0,Y,0.31590526309836348,0.4934872974008892,0.13153341044116409
0.58911778623899214,0,N,1.6047240765070487,0.2127413934002543,0.26306682088232819
0.021642327094463999,0,Y,0.2067149653656942,0.031302725969754398,0.26306682088232819
0.36423912475185849,0,N,0.18058395394249141,0.21092077365786771,0.26306682088232819
0.67506697063133358,0,Y,2.0316861381540243,0.84886615514510977,0
0.89607915906878277,0,Y,1.0979691049785072,0.39088549240548992,0.13153341044116409
0.20895697815904291,0,N,1.8361701776839887,0.26201783536261603,0.52613364176465638
0.0020464091521986,0,N,1.3914763582855538,0.031444437461378101,0
0.43331163487841662,0,Y,2.015820881218509,0.55809654983195722,0.39460023132349231
0.2480495942058914,0,N,0.97524667633025064,0.22339638211545779,0.26306682088232819
0.22944587464044949,0,N,1.2584881751496104,0.25024698052836919,0.9207338730881488
1.0342427830414644,0,N,1.3686117232902513,0.77613899720887602,0.13153341044116409
0.17053409601655031,0,N,1.2393565417861945,0.24204263101331289,0.26306682088232819
0.086569308377856105,0.40000000000000002,Y,0.53101948213580163,0.112771916654263,0.26306682088232819
0.32629683869813991,0,N,1.7311795067871916,0.47713453711747028,0
0.74414878261767436,0.80000000000000004,Y,0.81566085656711862,0.18610388431974759,0
1.3169294024582809,0,N,0.30797263463060548,0.49847845072087149,0.39460023132349231
0.21704339493015501,0,Y,1.00837706581324,0.17012136395444441,0.65766705220582056
1.1315650413281455,0,N,0.47269133163758081,0.38805103881802921,0.26306682088232819
0.13425684286393871,0,N,2.1306106813990078,0.18034047795541169,0.13153341044116409
0.2506541149450533,0,N,1.1940938969995749,0.24161645234850351,0
0.51481453029461732,0,N,1.6490534708856963,0.5248271666984482,0.26306682088232819
0.3445408863519831,0,N,0.44656032021437791,0.2577480681199939,0.13153341044116409
0.074290853464664394,0,Y,2.1558084424142381,0.084071610350684403,0.39460023132349231
0.17467652423978869,0.40000000000000002,Y,0.89592039165267068,0.098594800692245799,0.26306682088232819
0.54103337240218008,0,N,1.5421962991729561,0.30542660113680509,0.78920046264698474
0.093018597827209296,0,N,0,0.19853474177998279,0.13153341044116409
0.21704339493015501,0.40000000000000002,N,1.0727713439632758,0.19853474177998279,0.26306682088232819
0.4709221545998849,0,N,1.4148076184848419,0.20087171344684879,0.13153341044116409
1.3271149389203605,0,Y,0.44889344623430671,0.57278912269850679,0.39460023132349231
0.1240247971029457,0.80000000000000004,N,0.3471691517654098,0.13282886615873421,0
0.37759349477991822,0,N,1.7157808750556611,0.16345488246348769,0.39460023132349231
0.48902977497691491,0,N,1.4806017722468348,0.62511116837084835,0
0.3425378858787706,0,N,1.1021687318143789,0.1993203455385473,0
0.3445408863519831,0.40000000000000002,N,0.92765090552370277,0.2577480681199939,0.52613364176465638
0.98098033392560424,0,N,1.0989023553864783,0.34740139578575358,0.26306682088232819
0.68270999875280247,0,N,1.0611057138636315,0.49016558003722971,0.39460023132349231
0.68696404929343358,0,N,1.7997734117730988,0.61645132828771543,0.52613364176465638
0.31936075192015762,0,N,1.5403297983570132,0.49540786103736828,0
1.2092417717537207,0,Y,1.3504133403348064,0.66261914221882223,0.26306682088232819
0.43408678986031002,0.40000000000000002,N,0.92345127868783061,0.22339638211545779,0.52613364176465638
0.3445408863519831,0.40000000000000002,N,1.5253977918294686,0.2577480681199939,0
0.39997997065699997,0,Y,1.8576349370673344,0.29585040979783578,0.39460023132349231
0.1918167511994158,0,N,0.7498667028051258,0.1113075894358166,0.13153341044116409
0.089917977899635598,0,N,0.45682607470206471,0.1935623838788896,0.26306682088232819
0.55217700042187978,0,N,1.714380999443704,0.29811786824881059,0.39460023132349231
0.4709221545998849,0.40000000000000002,Y,0.84225849319430723,0.1721244931810432,0.13153341044116409
0.66278851571814201,0,N,1.2290907872985073,0.33342416761192128,0
0.29455889311949601,0,Y,1.2962848166724577,0.26068887991116801,0
0.1240247971029457,0,N,1.9920229958152345,0.2482580224509327,0
0.1567673435381233,0,N,0.54128523662348849,0.32227475496094221,0
0.35058089397089659,0,N,1.0009110625494679,0.32746378227422851,0
0.3425378858787706,0,N,0.6677406669036311,0.29915982063722268,0
0.72919139208705908,0,Y,1.4064083648130985,0.6091897331169347,0
0.43408678986031002,0,Y,1.7867079060614974,0.21073102942908309,0
0.080430080921260305,0,Y,1.6285219619103228,0.088994220059718104,0.13153341044116409
0.391099795184429,0,Y,0.75826595647686956,0.36227364390668271,0.13153341044116409
0.70483292193604052,0,Y,1.6261888358903942,0.39298610422132668,0
0.068213638406620106,0,Y,0.96871392347444985,0.095110189698214595,0.13153341044116409
0.13823183761108809,0,N,1.5263310422374403,0.1353413363202268,0.52613364176465638
0.51874611636278078,0,N,2.002755375506907,0.528610117674845,0.13153341044116409
0.71190233537090841,0,Y,1.189894270163703,0.35705269421528329,0
0.13394678087118131,0.40000000000000002,N,0.3336370208498225,0.1583582659597392,0.26306682088232819
0.045014800108514101,0,N,2.025153385298224,0.202827481201247,0
0.1118951719462776,0,N,1.5673940601881875,0.22880625560069029,0.39460023132349231
0.3445408863519831,0.80000000000000004,Y,0.37096703716868379,0.36099078198251028,0
0.090190832453262093,0,N,1.5874589439595757,0.19399997404802449,0
0.15503099637868209,0.80000000000000004,N,0.36863391114875488,0.1115188887283271,0.26306682088232819
0.43408678986031002,0.40000000000000002,N,0.74800020198918271,0.22339638211545779,0.39460023132349231
0.36423912475185849,0.80000000000000004,Y,0.9472491640911046,0.15810094772494879,0
0.89917977899635648,0,N,1.5244645414214972,0.406468610119401,0
0.68590053665827588,0,N,1.9378944721528857,0.55593477831973548,0
0.15503099637868209,0.40000000000000002,N,0.73540132148156701,0.22339638211545779,0
0.2055897049176979,0,N,0.79746247361167366,0.113467048813175,0
0.0076027200624104998,0,N,1.1413652489491837,0.039672952515006001,0.13153341044116409
0.34044806804758598,0,N,0.3541685298251962,0.35705269421528329,0.26306682088232819
0.1444888886249317,0.80000000000000004,N,0.52915298131985833,0.059948659811546803,0.26306682088232819
0.087983191064829602,0,N,1.0872367252868345,0.109728848834133,0.52613364176465638
0.96880419947002261,0,Y,1.1506977530288984,0.34321717753307479,0.13153341044116409
0.11921263497535139,0,Y,1.8893654509383664,0.26730762700494631,0.26306682088232819
0.55380172526392835,0,N,0.32150476554619267,0.35132829580364178,0
0.15472093438592471,0.80000000000000004,Y,0.97478005112626476,0.17834704477823979,0.13153341044116409
0.1918167511994158,0,N,0.4325615640948049,0.2057943231558825,0.13153341044116409
0.85267048008275181,0,Y,1.094236103346621,0.60697634878776363,0
0.82853525456651855,0,Y,0.76526533453665602,0.41316447809862078,0.13153341044116409
0.21704339493015501,0,Y,1.3298818313594327,0.29798137770687833,0.26306682088232819
0.36091215956957201,0,N,0.75173320362106888,0.52339379225317229,0
0.093018597827209296,0,N,0.8795885095131688,0.18610388431974759,0
0.391099795184429,0,Y,0.092858415593167307,0.16886975314342481,0.26306682088232819
0.45077432631051129,0,N,1.2393565417861945,0.57909968459050121,0
0.1485817069293289,0,N,0.063461027742064094,0.2156395425739501,0
0.1240247971029457,0.40000000000000002,N,1.6518532221096112,0.2190089943347881,0.26306682088232819
0.095350264012744601,0,N,1.6229224594624938,0.15161578235827469,0.13153341044116409
0.29455889311949601,0,N,1.8646343151271203,0.22339638211545779,0.13153341044116409
0.40120471552839149,0.40000000000000002,Y,0.3163718883023493,0.296692101473085,0.39460023132349231
0.25900098379008152,0,Y,1.572060312228045,0.15466548824301229,0.52613364176465638
0.18603719565441859,0.80000000000000004,N,0.36350103390491151,0.1736730268595123,0.13153341044116409
0.32208309621656728,0,Y,0.95424854215089139,0.1695117062004802,0.13153341044116409
0.6399059406526485,0.40000000000000002,N,0.4554261990901074,0.2479291026203746,0.52613364176465638
0.2480495942058914,0,N,1.7153142498516754,0.1338943874057533,0
0.13937286574443519,0.80000000000000004,Y,0.69480492873480537,0.1362562704611468,0.13153341044116409
0.99777019083341556,0,Y,1.5967914480392906,0.31289554259532998,0.39460023132349231
0.52617520170924725,0.40000000000000002,N,1.2360901653582941,0.22302345713750071,0.9207338730881488
0.85670128598859752,0,Y,0.88705451277694092,0.60974665927901572,0.13153341044116409
0.51160228804965113,0,N,1.8235712971763729,0.42068570363905522,0
0.31006199275736429,0,N,0.72186919056597965,0.19044025596343281,0.39460023132349231
0.2318767606636673,0.40000000000000002,N,1.0018443129574393,0.25258596599011612,0.26306682088232819
0.084820558738704505,0,N,1.983157116939505,0.072962399012329093,0.39460023132349231
0.36049667649927708,0,N,1.8347703020720316,0.37634335747504832,0
0.43408678986031002,0,N,0.32150476554619267,0.13948826207510981,0.13153341044116409
0.15503099637868209,0,N,0.65467516119202951,0.1115188887283271,0
0.74414878261767436,0.40000000000000002,N,1.4558706364355898,0.44359970598465132,0
0.21704339493015501,0,Y,1.287885563000714,0.28377472608660692,0.26306682088232819
0.15503099637868209,0,N,1.2206915336267634,0.29798137770687833,0.13153341044116409
0.1204900903855117,0.40000000000000002,N,0.97897967796213659,0.1211155163560884,0
0.34044806804758598,0.80000000000000004,N,0.60614613997750999,0.19820321147457901,0.26306682088232819
0.143825355960431,0,N,1.4134077428728848,0.247026698758714,0.13153341044116409
0.062012398551472801,0,Y,1.1287663684415676,0.0369338931369066,0.26306682088232819
0.60916019345082817,0,N,0.73866769790946729,0.3846193085858724,0.26306682088232819
0.093018597827209296,0,N,1.8921652021622803,0.10793179795035331,0
0.32816961313439441,0,Y,0.5963470106938088,0.28763890012320281,0.9207338730881488
0.2480495942058914,0,N,2.1562750676182239,0.1914314159698472,0.13153341044116409
0.080430080921260305,0,N,0.94024978603131837,0.17834704477823979,0.39460023132349231
0.67475690863857618,0,Y,0.35976803227302551,0.48469961863531241,0.39460023132349231
0.37728343278716081,0.80000000000000004,Y,0.59774688630576622,0.1224082980846745,0.39460023132349231
0.29455889311949601,0,N,1.4320727510323157,0.1562698860831794,0.39460023132349231
0.71190233537090841,0,N,1.0513065845799303,0.51022894385132189,0.13153341044116409
0.2115614988982048,0,Y,1.1964270230195038,0.36432473128544679,0.52613364176465638
0.82170148824614619,0,N,1.734445883215092,0.51243561553088957,0.52613364176465638
0.27905579348162779,0,N,1.9383610973568717,0.2660164115612676,0
0.58142824881860955,0,Y,0.16238557098704651,0.49070900631510878,0.26306682088232819
0.23442236962420521,0,Y,1.6415874676219242,0.31888382272137389,0
0.33176013101052459,0,N,1.7101813726078321,0.1546377426246523,0.13153341044116409
0.34416261072081922,0,N,1.692449614856373,0.25748813941035781,0.78920046264698474
0.27905579348162779,0,Y,1.2636210523934539,0.37256637329829878,0.13153341044116409
0.32629683869813991,0.40000000000000002,N,1.0363745780523861,0.42938522293984288,0
0.45388114747794012,0,N,2.0326193885619959,0.77723472537910965,0.13153341044116409
0.79995994131399994,0.80000000000000004,Y,0.92391790389181638,0.4871725587491415,0
0.062012398551472801,0,N,1.0928362277346635,0.14881138652403739,0
0.31074102852150293,0,N,1.8562350614553769,0.27366420783922069,0.13153341044116409
0.43408678986031002,0,N,0.93605015919544643,0.32869286841657958,0.78920046264698474
0.34078603561969151,0,Y,1.8063061646289,0.2881385450086697,0.9207338730881488
0.3445408863519831,0.40000000000000002,N,0.6784730465953035,0.2577480681199939,0
0.039191835884530797,0,N,0.32943739401395061,0.088515309803025605,0.13153341044116409
0.95902174359852776,0.40000000000000002,N,0.34530265094946672,0.68006964446735563,0.78920046264698474
1.5439598941751509,0,N,1.0853702244708914,0.82324136113474344,0
1.2092417717537207,0,N,1.1772953896560872,0.29798137770687833,0.52613364176465638
0.89917977899635648,0,Y,1.7106479978118176,0.27933512880902323,0.52613364176465638
0.1240247971029457,0.40000000000000002,Y,1.0676384667194323,0.052916413502209797,0.13153341044116409
0.15503099637868209,0,N,0.36863391114875488,0.14881138652403739,0
0.43408678986031002,0,N,1.8487690581916043,0.74549135125540111,0
0.31365251063349447,0,N,2.1464759383345227,0.29573853230444869,0
0.062012398551472801,1.2,Y,0.64954228394818614,0.14881138652403739,0
0.43408678986031002,0.40000000000000002,Y,1.825904423196302,0.55902886227685,0.13153341044116409
0.52710538768751936,0.40000000000000002,N,0.55575061794704694,0.3192913551372854,0.26306682088232819
0.18603719565441859,0.40000000000000002,N,0.84739137043815072,0.19300993281654391,0.52613364176465638
0.068213638406620106,0,Y,0.95144879092697676,0.050422664174610603,0.13153341044116409
0.76665928329185884,0.40000000000000002,Y,0.34670252656142397,0.38339611465817303,0
0.43408678986031002,0,N,1.8212381711564445,0.3192913551372854,0
0.34416261072081922,0.40000000000000002,Y,0.9439827876632042,0.18013410127261029,0.26306682088232819
0.062012398551472801,0,N,1.5818594415117462,0.096926185170874493,0
0.20154029529228679,0,N,1.4638032649033474,0.18610388431974759,0.39460023132349231
0.15472093438592471,0.40000000000000002,Y,1.0578393374357311,0.11133242623934859,0.26306682088232819
0.14213241747997579,0,N,1.4222736217486145,0.2446311778703088,0.52613364176465638
0.093018597827209296,1.2,N,0.58981425783800812,0.19853474177998279,0.13153341044116409
0.27905579348162779,0,Y,1.4941339031624223,0.2482580224509327,0
0.46171331341499111,0,Y,1.5417296739689703,0.26302585157803399,0.39460023132349231
0.27905579348162779,0,Y,1.562261182944344,0.099088031268091806,0.13153341044116409
0.65794224677134439,0.40000000000000002,Y,1.2029597758753043,0.36792054850790479,0.65766705220582056
0.18541707166890381,0,Y,0.50722159673252754,0.2078827030324423,0.26306682088232819
0.67475690863857618,0,N,1.3191494516677602,0.6787228632019614,0.13153341044116409
0.89917977899635648,0,Y,1.2874189377967278,0.33360406662128778,0.39460023132349231
1.4548108700175533,0,Y,0.2267798491370821,0.7938887344597223,0
0.1444888886249317,0,Y,2.1100791724236334,0.1559936232595088,0.13153341044116409
0.24378314118555011,0.80000000000000004,N,0.84879124605010803,0.1884991068681704,0
0.43408678986031002,0,Y,0.79559597279573069,0.48606526990459142,0.9207338730881488
0.20154029529228679,0,N,1.998555748671035,0.1239497461885624,0
0.58911778623899214,0,N,1.4194738705247001,0.74549135125540111,0
0.30787295508849732,0,N,1.8441028061517468,0.4092741993135679,0.26306682088232819
0.37728343278716081,0,Y,0.32477114197409301,0.32701977779547281,0
0.74414878261767436,0,N,1.1735623880242012,1.0355441201759248,0
0.43408678986031002,0.80000000000000004,Y,0.49135633979701149,0.22339638211545779,0.26306682088232819
0.4709221545998849,0,N,0.2641098654559435,0.32932900384397878,0
0.85670128598859752,0,N,1.6803173595527428,0.71143084507365395,0.13153341044116409
0.16495298014691781,0,N,2.1343436830308931,0.167990396045402,0.13153341044116409
0.74414878261767436,0,N,1.8151720435046288,0.53239135319634334,0.13153341044116409
0.3445408863519831,0,Y,1.3821438542058382,0.30076585934729277,0.39460023132349231
0.50572351266697146,0.40000000000000002,N,1.0933028529386497,0.43000673970810621,0.26306682088232819
0.1012042344360037,0,N,1.2309572881144506,0.0485691524491682,0
0.051625321794101099,0,N,2.112878923647548,0.099025901966764196,0.65766705220582056
0.30695827220986299,0,N,1.7442450124987929,0.27063105982350438,0.13153341044116409
1.2252564736796383,0.40000000000000002,Y,0.3336370208498225,0.43134464535902511,0.13153341044116409
0.15758590719900281,0,N,0.32430451677010719,0.1508600125979469,0
1.2247448713915889,0,N,1.87350019400285,1.0065388358253728,0.26306682088232819
0.19807690283318699,0,Y,0.23284597678889701,0.18332686117889219,0
0.30053688833985809,0,N,1.9789574901036331,0.22750497118260679,0
0.058911778623899201,0,N,0.37143366237266962,0.076890119465168896,0.13153341044116409
0.15472093438592471,0,N,1.82170479636043,0.6378758682713509,0.26306682088232819
0.50668470484451933,0,Y,1.4026753631812123,0.43077750105254792,0.26306682088232819
0.33176013101052459,0.40000000000000002,N,1.0471069577440586,0.13389207527088989,0.13153341044116409
0.15503099637868209,0,Y,1.1040352326303218,0.092872639830472004,0.13153341044116409
1.0235890529703211,0,Y,1.0032441885693966,0.50700433615192231,0.39460023132349231
0.2821564134092015,0,N,1.4157408688928137,0.21487236130929671,0.26306682088232819
0.37728343278716081,0,Y,0.1287885563000713,0.32701977779547281,0.52613364176465638
0.15503099637868209,0.40000000000000002,N,0.59074750824597944,0.089143390050900995,0.26306682088232819
0.55217700042187978,0,N,1.841769680131818,0.31138348097970509,0.13153341044116409
0.30323132705691952,0,Y,1.5151320373417816,0.16044217073656339,0.9207338730881488
0.16495298014691781,0.40000000000000002,N,0.4554261990901074,0.1174856883756408,0.13153341044116409
0.3199839765255999,0,Y,1.3942761095094689,0.12025599886689289,0.52613364176465638
0.4148257388702225,0,Y,1.0555062114158025,0.53586276264615484,0.13153341044116409
1.269083736355892,0.40000000000000002,N,0.50115546908071251,0.3123762818560224,0.13153341044116409
0.1506808266202963,0,N,1.6373878407860525,0.174459674808015,0.26306682088232819
0.17178984708721759,0,Y,1.512798911321853,0.13901942079282209,0.39460023132349231
0.55380172526392835,0,N,1.8357035524800029,0.4685572626244569,0.78920046264698474
0.13425684286393871,0,Y,0.48342371132925338,0.0357811820300412,0.65766705220582056
0.15472093438592471,0,N,1.4372056282761587,0.12374254907080939,0.13153341044116409
0.17554469781950929,0,N,1.6154564561987212,0.33087835795739939,0
0.2027402352042578,0,Y,0.31357213707843462,0.18706603076287689,0.26306682088232819
0.59755147244199247,0,Y,0.96824729827046419,0.33563852154603507,0.65766705220582056
0.85670128598859752,0,N,1.8189050451365156,0.53348350128678845,0
0.71466808834630402,0.80000000000000004,Y,0.84785799564213671,0.29859297467072798,0.26306682088232819
0.27751788599755128,0,Y,1.9369612217449139,0.49440842209644331,0
0.1506808266202963,0.40000000000000002,N,0.50955472275245617,0.36384611936873668,0
0.27905579348162779,0,N,1.0261088235646991,0.1143875768287643,0.52613364176465638
0.3939585667576519,0.40000000000000002,Y,0.44469381939843489,0.14567665374432551,0.13153341044116409
0.021642327094463999,0.40000000000000002,Y,0.35790153145708231,0.050299524346889203,0
0.20895697815904291,0.40000000000000002,N,0.4451604446024206,0.22890038186512671,0.13153341044116409
0.54260848732538747,0,N,1.4246067477685431,0.21192177888370009,0.65766705220582056
0.60462088587686036,0,Y,0.2174473450573669,0.2180688504653582,0.52613364176465638
0.52930682783609651,0.80000000000000004,Y,0.46942495520968042,0.53877157747422022,0.13153341044116409
0.65113018479046492,0.40000000000000002,N,0.8291929874827062,0.36427915985314041,0
0.083930680819490899,0.40000000000000002,N,0.1549195677232742,0.061081232969602599,0.39460023132349231
0.85212787159542636,0,Y,1.6075238277309636,0.6066034238098067,0.39460023132349231
0.27905579348162779,0.40000000000000002,N,0.70413743281452057,0.1959177034546711,0.26306682088232819
0.27905579348162779,0.40000000000000002,N,1.3891432322656252,0.29798137770687833,0
0.29196367424011688,0.80000000000000004,N,0.71300331169025033,0.22161275653088461,0.26306682088232819
0.81168028464022823,0,Y,1.6173229570146643,0.51940319664904888,0.39460023132349231
0.028488495894546599,0,N,0.89312064042875594,0.0175306065337986,0.39460023132349231
0.48933983696967231,0.80000000000000004,Y,0.55901699437494734,0.15610206984309871,0
0.48933983696967231,0,Y,1.610790204158864,0.6254840933488055,0
0.3445408863519831,0,N,1.4078082404250556,0.45132812864283878,0.26306682088232819
0.0086569308377855998,0.80000000000000004,N,0.68173942302320389,0.0208434482829827,0
0.89917977899635648,0,N,1.4824682730627785,0.86023753274296899,0
0.13425684286393871,0,Y,2.0312195129500386,0.198410408592332,0
0.33796757210552708,0,N,0.79839572401964531,0.44342211911014823,0.39460023132349231
0.45633373784065079,0.40000000000000002,Y,0.88845438838889812,0.29271381239323419,0.13153341044116409
0.59367569753252536,0,N,1.2505555466818523,0.60070695781333572,0.26306682088232819
0.15217222480545919,0,N,1.9663586095960173,0.29736657358821822,0.78920046264698474
0.34726943188824799,0,N,1.7554440173944512,0.3636161738273283,0.26306682088232819
0.30100508194892162,0.40000000000000002,N,1.356946093190607,0.2658576201056535,0.13153341044116409
0.0918403622547313,0,N,1.8389699289079031,0.084071610350684403,0
0.45250447223009738,0.40000000000000002,Y,1.0480402081520299,0.1934877988832982,0.13153341044116409
0.15472093438592471,0.40000000000000002,N,0.4199626835871893,0.2974841195412703,0.26306682088232819
0.34416261072081922,0,N,1.934161470521,0.45087316016973111,0.26306682088232819
0.52988974438248038,0.80000000000000004,N,0.84552486962220763,0.22451269574447461,0.26306682088232819
0.4185836902224418,0,N,0.46055907633395088,0.30863636642208192,0.13153341044116409
0.20154029529228679,0,Y,1.3326815825833471,0.22339638211545779,0.65766705220582056
0.3445408863519831,0.40000000000000002,Y,1.3308150817674045,0.22548476199201761,0.13153341044116409
0.22621502867591781,0,Y,0.73960094831743894,0.24713827791211879,0
0.093018597827209296,0.40000000000000002,N,0.14045418639971541,0.13525049179559651,0.26306682088232819
0.40730983616578398,0,N,1.7129811238317465,0.39014635509917889,0.13153341044116409
0.15503099637868209,0,Y,1.9887566193873336,0.1275014090936302,0.26306682088232819
0.031006199275736401,0,N,1.319616076871746,0.059309391814332799,0.39460023132349231
0.1271254170305193,0,Y,1.0634388398835604,0.15179478634769419,0.26306682088232819
0.38953088150107668,0,N,1.6149898309947357,0.38871685907367381,0.26306682088232819
0.32816961313439441,0.80000000000000004,Y,0.70647055883444965,0.1724399131273994,0.26306682088232819
0.099219837682356496,0,Y,0.84272511839829334,0.0751249909595023,0
0.17713221522242709,0.40000000000000002,N,0.57908187814633527,0.19991105870363129,0.13153341044116409
0.093018597827209296,0.40000000000000002,N,0.49322284061295452,0.099088031268091806,0.13153341044116409
0.54459288407903461,0.80000000000000004,N,1.1646965091484716,0.17271587761108759,0.13153341044116409
0.33372902466453391,0,N,0.57954850335032126,0.17511453106930769,0.13153341044116409
1.1057802860104431,0,N,0.67940629700327515,0.63557738246221007,0
0.2954270666992167,0.40000000000000002,N,2.0340192641739532,0.1305132258006074,0.39460023132349231
0.058787753826796199,0,Y,0.1441871880316016,0.086040654234297895,0
0.40616880803243688,0.40000000000000002,Y,0.75219982882505443,0.26254604630139439,0.65766705220582056
0.46509298913604641,0,N,0.25757711260014271,0.47890242526797377,0
0.27905579348162779,0,N,0.48669008775715378,0.18610388431974759,0
0.29765951304706972,0,N,1.2440227938260515,0.26317502156921679,0
0.1240247971029457,0,N,2.192671833529114,0.14881138652403739,0.65766705220582056
0.54474791507541331,0,Y,1.2724869312691836,0.27663515196861371,0
0.27905579348162779,0,N,0.28044174759544521,0.37256637329829878,0.13153341044116409
0.26007379828502197,0,Y,1.6551195985375116,0.3497359061477649,0.39460023132349231
1.0342427830414644,0,Y,1.5697271862081164,0.26937213968291679,0.13153341044116409
0.34106819203310068,0,N,1.4950671535703941,0.3192913551372854,0.13153341044116409
1.0542107753750387,0,Y,1.6518532221096112,0.74549135125540111,0
0.13332665688566661,0,N,1.4180739949127426,0.11258440997534611,0.13153341044116409
0.2480495942058914,0,N,0.44282731858249169,0.55902886227685,0
0.43408678986031002,0,N,1.7447116377027785,0.37256637329829878,0
0.3445408863519831,0,N,0.6864056750630616,0.22548476199201761,0
0.32629683869813991,0,N,1.0895698513067631,0.47713453711747028,0.26306682088232819
0.43718740978788367,0,N,0.39569817297992949,0.23926553328746189,0.39460023132349231
0.1323096535494224,0.40000000000000002,N,0.97151367469836436,0.0978549175359789,0.13153341044116409
0.40308059058457357,0,N,1.7825082792256255,0.29798137770687833,0.52613364176465638
0.81168028464022823,0,N,1.670051605065056,0.7792840973029751,0.65766705220582056
0.1085216974650775,0.40000000000000002,N,0.58094837896227858,0.18610388431974759,0.26306682088232819
0.1240247971029457,0,N,0.80399522646747434,0.2190089943347881,0.26306682088232819
0.89220958539917095,0.80000000000000004,N,0.77459783861637144,0.4931487561058997,0.65766705220582056
0.18541707166890381,0,N,1.7610435198422807,0.2078827030324423,0
0.3117983399168055,0,N,0.090525289573238604,0.23524473076012409,0
0.3445408863519831,0,N,0.094724916409110502,0.53103756094136334,0
0.52617520170924725,0,Y,0.65280866037608654,0.53575834365232677,0.52613364176465638
0.83716738044488359,0.40000000000000002,N,1.1805617660839876,0.34770473296282378,0
1.0342427830414644,0,N,1.9812906161235619,0.64025192247590679,0.13153341044116409
0.68213638406620136,0,N,0.31683851350633491,0.61230388043786321,0
0.1240247971029457,0,N,1.245889294641995,0.082513604377775204,0
0.1240247971029457,0,N,0.5996133871217092,0.14881138652403739,0.26306682088232819
0.30695827220986299,0,N,1.6616523513933124,0.36917275599888921,0.52613364176465638
0.1506808266202963,0,N,1.1936272717955889,0.12451159496035261,0.39460023132349231
0.60046605517391172,0.80000000000000004,N,0.75733270606889791,1.3805486525433519,0.13153341044116409
0.4928094306686272,0.40000000000000002,N,0.66540754088370202,0.2096466381781795,0
0.15503099637868209,0,N,1.5809261911037751,0.22339638211545779,0
0.1240247971029457,0,Y,0.099391168448968004,0.14881138652403739,0.13153341044116409
0.1085216974650775,0,N,0.0793262846775801,0.16745763542189249,0
0.41002597922233852,1.2,N,0.63461027742064169,0.23539628747116589,0.13153341044116409
0.61410878285523574,0,N,1.3420140866630623,0.38759524990997007,0
0.062012398551472801,0,Y,1.4554040112316036,0.074226390932616904,0
0.1240247971029457,0,N,0.26737624188384379,0.33866413647719651,0
0.11640967456082479,0,Y,0.48389033653323921,0.1178436963544796,0
0.58911778623899214,0,N,1.6779842335328139,0.29798137770687833,0.13153341044116409
0.32816961313439441,0,N,1.115700862729966,0.39236533330301931,0.39460023132349231
0.2204168694113551,0,N,1.9243623412372983,0.15879794450875059,0.78920046264698474
0.26380694467782068,0,N,2.0414852674377251,0.37288828213927139,0.26306682088232819
0.12576114426238691,0,N,0.71720293852612205,0.1881922641963073,0
0.58911778623899214,0,Y,1.4675362665352336,0.39219401156814582,0.26306682088232819
1.1573497966458479,0,N,1.7218470027074759,0.57135627034819991,0.26306682088232819
0.71190233537090841,0,Y,0.80166210044754571,1.0508511242361562,0
0.27905579348162779,0,N,1.5855924431436323,0.092872639830472004,1.0522672835293128
0.48933983696967231,0,N,0.97804642755416538,0.31256274434500098,0.26306682088232819
0.61826361355818449,0,N,0.99437830969366725,0.3545981765953653,0.13153341044116409
0.53731882972894685,0.80000000000000004,Y,0.71253668648626467,0.3793909003949138,0
0.13642727681324029,0,N,0.18525020598234901,0.20102088343803171,0.26306682088232819
0.1240247971029457,0,N,0.1203893026283275,0.092872639830472004,0.13153341044116409
0.83716738044488359,0.40000000000000002,N,0.30377300779473349,0.5963213600725602,0.13153341044116409
0.093018597827209296,0,N,0.94678253888711883,0.14881138652403739,0
0.15503099637868209,0.80000000000000004,Y,0.69993780597864874,0.14881138652403739,0
0.50668470484451933,0,Y,0.91645190062804438,0.085868586649468504,0
0.1597253349490286,0,N,2.1950049595490424,0.091401823717409195,0
0.37056128878418121,0.80000000000000004,Y,0.62061152130106845,0.1069708448671535,0.65766705220582056
0.31006199275736429,0.80000000000000004,Y,0.59028088304199378,0.54659800481661469,0.13153341044116409
0.83419078531441282,0,Y,1.0177095698929557,0.41588533873779582,0
0.79685932138642623,0,Y,0.4974224674488264,0.24856881812756221,0.26306682088232819
0.2480495942058914,0,Y,0.1829170799624201,0.095536368363023996,0.13153341044116409
0.26710910490068662,0.40000000000000002,Y,0.67100704333153138,0.15899969692182539,0.26306682088232819
0.046906178264333999,0,N,1.4297396250123866,0.0464956895717267,0.26306682088232819
0.084677930222036096,0,N,1.9588926063322449,0.069210549979093802,0.65766705220582056
0.22324463478530229,0,N,2.0358857649898967,0.24428018088105549,0
0.1062148362389627,0.40000000000000002,Y,0.5459514886633462,0.21969696633412339,0.52613364176465638
0.48840965099140021,0,Y,0.16051907017110351,0.32844345619132181,0
0.85670128598859752,0,Y,1.8641676899231348,0.85378876485414346,0
0.41002597922233852,0.80000000000000004,N,0.4540263234781502,0.1764575830849224,0.13153341044116409
0.35656509043111378,0,N,1.0681050919234181,0.2327157773146058,0.13153341044116409
0.25735145398861231,0,N,0.74893345239715414,0.25654523589609107,0
0.25522132809836928,0.40000000000000002,Y,0.45589282429409322,0.089059109005882695,0.13153341044116409
0.83419078531441282,0,Y,1.0769709707991475,0.41588533873779582,0.13153341044116409
0.31936075192015762,0,N,1.2930184402445573,0.17522536437275649,0
0.12693937983486489,0,N,1.1628300083325287,0.058093059706227898,0
0.21704339493015501,0,N,1.9546929794963728,0.45862597212147688,0.13153341044116409
0.19432205210089529,0,Y,0.3210381403422069,0.18031608866185339,0
0.32816961313439441,0.40000000000000002,Y,0.59121413344996543,0.34523843091360229,0.13153341044116409
0.13332665688566661,0.40000000000000002,Y,0.52541997968797227,0.087485962278868401,0
0.36423912475185849,0,N,0.55528399274306139,0.52783987842537239,0
0.5136238922424291,0,Y,1.8613679386992199,0.65469157762240582,0
0.51134803721559008,0,N,2.0498845211094694,0.4345166706365326,0.26306682088232819
0.2719863800467599,0,Y,0.19458271006206429,0.22740532562849661,0.39460023132349231
0.4147389215122505,0,N,0.94118303643929002,0.23791561945225281,0.78920046264698474
0.38225682715098902,0,Y,0.87025600543345327,0.283669561242823,0.52613364176465638
0.85670128598859752,0,N,1.4036086135891837,0.53348350128678845,1.183800693970477
0.18603719565441859,0,Y,0.38543241849224252,0.19300993281654391,0
0.30053688833985809,0,Y,1.0499067089679732,0.53132299771949176,0.52613364176465638
0.43408678986031002,0,N,1.454937386027618,0.37256637329829878,0.39460023132349231
0.084820558738704505,0.40000000000000002,N,0.47502445765750961,0.11108927915372049,0.13153341044116409
0.32816961313439441,0,N,0.086325662737366707,0.24649639944005899,0
1.3565832307120202,0,N,1.406874990017084,0.41686986067960258,0
0.43408678986031002,0,N,1.4834015234707496,0.62118300040803509,0
0.68981351900687371,0.80000000000000004,N,0.75406632964099751,0.31489993976685371,0
0.26296357605752058,0,N,1.3401475858471197,0.4710683156710333,0
0.52617520170924725,0,N,1.1017021066103931,0.44640551893380509,0.52613364176465638
0.71190233537090841,0,N,1.7055151205679742,0.94019742145668961,0.39460023132349231
0.173634715944124,0,N,0.53241935774775873,0.16372838564232139,0.26306682088232819
0.52617520170924725,0,N,0.86185675176170951,0.38258209401628829,0.26306682088232819
0.43408678986031002,0,Y,1.4642698901073334,1.1184163292125031,0
0.1240247971029457,0,N,2.0825482853884729,0.092872639830472004,0
0.58911778623899214,0,Y,0.74940007760114014,0.2810942159300468,0.26306682088232819
0.14200219144301771,0,N,1.8674340663510356,0.14827333036584081,0
0.56377952019086031,0.40000000000000002,Y,0.58234825457423567,0.23809954605138131,0
0.83419078531441282,0,Y,0.151186566091388,0.3465113730333611,0.26306682088232819
0.14213241747997579,0,Y,1.0060439397933114,0.13846890894036179,0.13153341044116409
0.037554708562771898,0.80000000000000004,Y,0.82032710860697633,0.082102566467070898,0.26306682088232819
0.30075703235471579,0,N,1.7181140010755898,0.3188621930726524,0.13153341044116409
0.45250447223009738,0.40000000000000002,N,1.0396409544802865,0.38733420242540001,0.13153341044116409
0.2954270666992167,1.2,N,0.71766956373010804,0.1959491037378151,0
0.1240247971029457,0.40000000000000002,N,0.84972449645807968,0.10619135707822749,0.13153341044116409
0.1444888886249317,0,N,2.1236113033392203,0.14035844521867491,0.13153341044116409
0.093018597827209296,0,N,0.076526533453665599,0.1189773882874692,0.52613364176465638
0.50760248834308108,0,N,1.4969336543863367,0.51788777870862246,0.52613364176465638
0.086569308377856105,0,N,1.8408364297238464,0.14105454698252959,0.39460023132349231
0.68981351900687371,0.40000000000000002,Y,1.0158430690770124,0.57761544317823199,0.26306682088232819
0.2243670591990839,0,N,1.7419118864788641,0.1532156305137107,0.26306682088232819
0.55610548587011566,0,Y,1.6845169863886149,0.28209924874564118,0.26306682088232819
0.093018597827209296,0.80000000000000004,Y,0.43442806491074798,0.074226390932616904,0.13153341044116409
0.13952789674081389,0,Y,1.2323571637264077,0.090800817822933505,0.13153341044116409
0.31006199275736429,0,N,0.1241223042602137,0.29265384605677869,0
0.0779619874589116,0,N,1.6406542172139529,0.17438904281718989,0.26306682088232819
0.020107520230315,0,N,1.9654253591880455,0.17528905995899161,0.52613364176465638
0.083716738044488301,0,N,2.0634166520250568,0.103778905395823,0.13153341044116409
0.44958988949817819,0,N,2.0237535096862667,0.36091246773713931,0.26306682088232819
0.43408678986031002,0,N,1.3975424859373689,0.44715136888971918,0.26306682088232819
1.2092417717537207,0,Y,1.5771931894718887,0.66261914221882223,0.13153341044116409
0.13952789674081389,0.40000000000000002,Y,0.63461027742064169,0.1021957642793996,0
0.13952789674081389,0,N,1.4418718803160169,0.20475013321760269,0.13153341044116409
0.062012398551472801,0.40000000000000002,Y,0.7293351938297522,0.1239497461885624,0.39460023132349231
0.1085216974650775,0.40000000000000002,Y,1.4241401225645576,0.1115188887283271,0
0.48933983696967231,0.40000000000000002,N,1.1726291376162297,0.52117697701420407,0.52613364176465638
0.15472093438592471,0,Y,0.59774688630576622,0.2974841195412703,0.13153341044116409
0.18541707166890381,0.40000000000000002,Y,0.18058395394249141,0.11533100243800019,0
0.080430080921260305,0,N,0.98877880724583778,0.15732287705093909,0
0.48933983696967231,0.40000000000000002,Y,0.56554974723074813,0.24997847454423999,0.13153341044116409
0.1901176114791055,0,N,1.6560528489454831,0.13261898398114,0
0.81168028464022823,0,N,1.1964270230195038,0.33748658856679919,0.13153341044116409
0.24323743207829709,0,Y,0.38916542012412869,0.18812409351033679,0
0.90228039892392997,0,N,0.94818241449907636,0.64107235742741231,0.39460023132349231
0.33176013101052459,0.80000000000000004,Y,0.81052797932327525,0.43595616105144702,0.26306682088232819
0.15503099637868209,0.40000000000000002,N,0.7321349450536665,0.14881138652403739,0.39460023132349231
0.15503099637868209,0,N,0.37050041196469807,0.17864538476060551,0
0.37191315907260331,0,Y,1.2430895434180804,0.32271376224499337,0
0.56218890216801509,0,N,1.492267402346479,0.40733364689827029,0.39460023132349231
0.65113018479046492,0.80000000000000004,N,0.59028088304199378,0.20475013321760269,0.26306682088232819
0.41412499876659092,0,N,1.1964270230195038,0.25458357592704117,0.13153341044116409
0.068548505358798098,0.40000000000000002,N,0.50675497152854165,0.085169053975816505,0.52613364176465638
0.38527062972059051,0,N,1.6373878407860525,0.22722057859441669,0.13153341044116409
0.43408678986031002,0,Y,1.7909075328973696,0.2482580224509327,0
0.3445408863519831,0.80000000000000004,N,1.1623633831285427,0.37604703128756362,0
0.1648537603092354,0,N,1.2934850654485428,0.23521064541713879,0
0.2821564134092015,0.40000000000000002,Y,0.30563950861067668,0.15030308643586579,0.52613364176465638
0.44276852565751618,0.40000000000000002,N,0.26224336464000048,0.45550488839595837,0.13153341044116409
0.17467652423978869,0,N,0.1199226774243418,0.1410033816755539,0
0.391099795184429,0,N,1.8982313298140956,0.20271545453786871,0.39460023132349231
0.15503099637868209,0,N,0.18991645802220669,0.17864538476060551,0.13153341044116409
0.3445408863519831,0,Y,0.50815484714049908,0.18031608866185339,0.13153341044116409
0.31006199275736429,0,N,0.82452673544284838,0.21554534172451811,0.52613364176465638
0.391099795184429,0,N,1.265954178413383,0.2252792057441676,0.39460023132349231
0.2480495942058914,0,N,1.9747578632677607,0.1338943874057533,0.26306682088232819
0.31006199275736429,0,N,1.8772331956347359,0.37256637329829878,0
0.48902977497691491,0,N,1.3256822045235608,0.39056000348472902,0.65766705220582056
0.084820558738704505,0,N,2.0736824065127442,0.18538786836207,0.13153341044116409
0.71190233537090841,0,N,1.147898001804984,0.39676502760796151,0.65766705220582056
0.055811158696325497,0,N,1.8207715459524587,0.046049820468081197,0.13153341044116409
0.48933983696967231,0.80000000000000004,Y,0.71766956373010804,0.18701941514063219,0.39460023132349231
0.31936075192015762,0,Y,1.0265754487686849,0.0558282863150944,0.26306682088232819
0.093018597827209296,0,N,0.1418540620116728,0.084881379647820401,0.13153341044116409
0.13952789674081389,0,N,0.1231890538522422,0.1168464203784267,0
0.3445408863519831,0,N,1.4624033892913899,0.75245259264893505,0.65766705220582056
0.062012398551472801,0,N,1.5967914480392906,0.1115188887283271,0.13153341044116409
0.43408678986031002,0,N,0.094258291205124606,0.52501116788257218,0.13153341044116409
0.098326859143215303,0.40000000000000002,N,0.80959472891530382,0.1826466460190985,0.13153341044116409
0.1161616249666189,0,N,0.2995733809588616,0.088143951109975999,0.13153341044116409
0.16052219427041509,0.40000000000000002,N,0.36350103390491151,0.070521232106621895,0.9207338730881488
0.56881802757316746,0,N,1.9378944721528857,0.65549097960515457,0.13153341044116409
0.062012398551472801,0,N,1.094236103346621,0.049364750597141897,0.26306682088232819
0.43408678986031002,0.80000000000000004,N,1.2001600246513899,0.1717605929875527,0.26306682088232819
0.48933983696967231,1.6000000000000001,N,1.3924096086935251,0.35726578354768801,0.65766705220582056
0.37728343278716081,0,N,0.92205140307587319,0.16333062386083241,0.13153341044116409
0.24684345305406519,0,Y,1.1940938969995749,0.26698683693890751,0
0.38895416619454809,0,N,1.1926940213876176,0.34798934930600067,0
0.15503099637868209,0,N,0.5044218455086128,0.17864538476060551,0
0.36049667649927708,0,N,1.6975824921002165,0.94139630067582603,0
0.17467652423978869,0,N,0.20718159056968011,0.19754820604329509,0.13153341044116409
0.75345064240039517,0,N,1.588392194367547,0.31414148494668459,0.9207338730881488
0.25633445065236821,0,N,1.1282997432375821,0.34523843091360229,0.13153341044116409
0.34863370465638038,0,N,1.3499467151308209,0.09282699381317,0.26306682088232819
0.20154029529228679,0.80000000000000004,N,0.79839572401964531,0.22339638211545779,0.65766705220582056
0.21396757996200191,0,Y,1.5706604366160877,0.23535384860867431,0.39460023132349231
0.15503099637868209,0,Y,0.36910053635274082,0.19421097500055259,0
0.24323743207829709,0,Y,2.0190872576464094,0.54938256104202476,0.13153341044116409
0.35159169606728569,0,N,1.0788374716150906,0.30641940201312251,0.26306682088232819
0.062012398551472801,0.80000000000000004,N,1.6373878407860525,0.049364750597141897,0.26306682088232819
0.073000995574793795,0,N,1.7839081548375826,0.1386347113855616,0
0.43718740978788367,0.80000000000000004,N,0.53335260815573038,0.11226473868424131,0.39460023132349231
0.71190233537090841,0.40000000000000002,N,1.3639454712503931,0.33682188708608851,0.39460023132349231
0.27905579348162779,0.80000000000000004,N,0.77646433943231441,0.4968747241456648,0.26306682088232819
0.18293657572684491,0.80000000000000004,N,0.55855036917096168,0.1466804186149949,0.13153341044116409
0.67522510224763987,0,N,1.945827100620644,0.33940737595826509,0.13153341044116409
0.0049113819652766002,0,N,0.62761089936085523,0.057240926131595898,0
0.4147389215122505,0,Y,1.5067327836700379,0.42853495399010072,0.39460023132349231
0.67684982708968833,0,Y,0.81706073217907593,0.1131572973264838,0.9207338730881488
0.076746544447302806,0,Y,1.5365967967251271,0.086040654234297895,0
0.34416261072081922,0,N,1.9542263542923879,0.60128372358424409,0.26306682088232819
0.52617520170924725,0,Y,1.5095325348939528,0.3347144880356529,0.39460023132349231
0.143825355960431,0,Y,0.2981735053469044,0.052210764858919297,0.52613364176465638
0.44892015559382231,0.40000000000000002,Y,0.68500579945110429,0.43364753168290571,0.39460023132349231
0.9909798331920292,0.80000000000000004,Y,0.57814862773836395,0.40937033937288519,0.52613364176465638
0.2752110247714365,0,N,1.4899342763265504,0.29428196192554379,0.65766705220582056
0.043960589333139101,0,N,1.1320327448694678,0.089807196511664605,0.26306682088232819
0.65238283524120477,0,N,1.384943605429753,0.52992624450705128,0.13153341044116409
1.0058349032650344,0.40000000000000002,Y,0.28650787524726018,0.83101050720052372,0.13153341044116409
1.0870711453674642,0,Y,0.54221848703145981,0.86722853354974405,0.26306682088232819
0.48933983696967231,0.40000000000000002,N,0.43349481450277638,0.44667186195306202,0.52613364176465638
0.42155408411305728,0,Y,0.8254599858508197,0.54395523466782392,0.13153341044116409
0.43408678986031002,0,N,0.091925165185195806,0.44715136888971918,0.26306682088232819
0.1240247971029457,0,Y,0.34250289972555209,0.1239497461885624,0.65766705220582056
0.83035841908393193,0.40000000000000002,Y,1.0051106893853397,0.41404159764677578,0.39460023132349231
0.44074072022488298,0,Y,0.55901699437494734,0.18877156585706589,0
0.18496128053955049,0.80000000000000004,N,0.4792240844933815,0.12951811278942671,0.26306682088232819
1.5291017234822175,0,N,0.074660032637722598,0.87238988982966592,0.13153341044116409
0.29094667090387277,0,N,1.4689361421471909,0.19325472077207501,0
0.15503099637868209,0,Y,0.89078751440882686,0.065451689956272999,0.26306682088232819
0.68981351900687371,0,N,1.6196560830345932,0.58741158566920038,0.26306682088232819
0.062012398551472801,0,Y,1.6355213399701092,0.089143390050900995,0.39460023132349231
0.31936075192015762,0.40000000000000002,N,0.34063639890960912,0.42104289118294252,0.13153341044116409
0.85670128598859752,0,Y,1.8618345639032059,0.17758873912806189,0.52613364176465638
0.85670128598859752,0,N,1.6789174839407854,1.0673256072323805,0.39460023132349231
0.15472093438592471,0,N,2.0307528877460528,0.34330608284781983,0.13153341044116409
0.32816961313439441,0,Y,0.44469381939843489,0.24649639944005899,0.39460023132349231
0.30698617778921122,1.2,Y,0.66400766527174471,0.18031608866185339,0.39460023132349231
0.74414878261767436,0.40000000000000002,N,0.85859037533380911,0.53239135319634334,0.26306682088232819
0.093018597827209296,0,Y,0.95564841776284837,0.074226390932616904,0.13153341044116409
0.43408678986031002,0,N,0.73026844423772352,0.53239135319634334,0
0.093018597827209296,0,Y,0.63087727578875563,0.099088031268091806,0
0.74414878261767436,0,Y,1.5328637950932409,0.27794359654627399,0
0.62012398551472858,0,N,1.8739668192068355,0.39121262219615388,0.26306682088232819
0.95902174359852776,0,N,1.4054751144051267,0.68006964446735563,0.13153341044116409
0.89917977899635648,0.80000000000000004,N,0.4008310502237728,0.52000181582366567,0.13153341044116409
0.27905579348162779,0,N,1.7139143742397178,0.46579761778757428,0.13153341044116409
0.43408678986031002,0,N,1.950959977864487,0.37256637329829878,0.13153341044116409
0.29455889311949601,0,N,1.6000578244671912,0.22339638211545779,0.13153341044116409
0.46509298913604641,0,N,1.8776998208387219,0.17012136395444441,0.39460023132349231
0.40308059058457357,0,N,0.2034485889377938,0.34770473296282378,0
0.1563797660471766,0,N,1.7825082792256255,0.37527007938848778,0
0.3445408863519831,0,Y,0.66400766527174471,0.112563078666607,0.9207338730881488
0.1597253349490286,0.40000000000000002,N,0.3415696493175806,0.15257546749654949,0.13153341044116409
0.1567673435381233,0,N,1.6905831140404295,0.22548476199201761,0
0.71314258334193781,0,N,0.70320418240654914,0.39742801363377372,0.13153341044116409
0.43718740978788367,0,N,1.8203049207484725,0.21213829912590201,0.26306682088232819
0.83716738044488359,0,N,0.95891479419074876,0.34770473296282378,0.39460023132349231
0.71466808834630402,0.80000000000000004,N,0.86279000216968116,0.71712518573207207,0.13153341044116409
0.2204168694113551,0,N,0.55901699437494734,0.2012396412301013,0.13153341044116409
0.1240247971029457,0,N,0.149320065275445,0.2482580224509327,0
0.184499288170342,0,N,1.625722210686408,0.34523843091360229,0
0.0020464091521986,0,N,2.1198783017073346,0.052646490403164402,0.13153341044116409
0.071314258334193706,0,Y,0.9472491640911046,0.069964380529536296,0.26306682088232819
1.0342427830414644,0,N,1.4960004039783654,0.28435716031718028,0.65766705220582056
0.16495298014691781,0,Y,1.9346280957249853,0.2045879854371869,0
0.093018597827209296,0,N,0.0191316333634164,0.076138824804576496,0.39460023132349231
0.48933983696967231,0.80000000000000004,Y,0.52262022846405798,0.41686986067960258,0.26306682088232819
0.1054799893161277,0,N,2.0321527633580105,0.072600438028723902,0.39460023132349231
0.59221840616656585,0.80000000000000004,N,0.63087727578875563,0.74922060103497212,0.52613364176465638
0.3590207814137521,0.40000000000000002,Y,1.7792419027977251,0.187282327250092,0.26306682088232819
0.32629683869813991,0.40000000000000002,N,0.52448672928000095,0.34343645742011358,0
0.53731882972894685,0.40000000000000002,N,1.1996933994474042,0.45534080140565719,0.13153341044116409
0.50775751933945978,0.80000000000000004,N,0.67054041812754539,0.80963444746402258,0
0.76515858324691333,0.40000000000000002,N,0.97431342592227921,0.3478530079340596,0.26306682088232819
0.181088606250011,0,Y,1.6275887115023513,0.33976888943189659,0.26306682088232819
0.1085216974650775,0.40000000000000002,N,1.1329659952774396,0.1338943874057533,0
0.27905579348162779,0,N,1.9887566193873336,0.082513604377775204,0.26306682088232819
0.084677930222036096,0.80000000000000004,N,0.3289707688099649,0.21370033268857319,0
0.1085216974650775,0.40000000000000002,N,0.62387789772896884,0.16745763542189249,0.13153341044116409
0.1853860654696281,0.40000000000000002,N,0.83945874197039294,0.17315093189037231,0
0.27905579348162779,0,Y,0.41809618277124622,0.2127413934002543,0.26306682088232819
0.27905579348162779,0.80000000000000004,N,0.59121413344996543,0.2127413934002543,0
0.27905579348162779,0,Y,0.27017599310775831,0.29798137770687833,0.13153341044116409
0.43592235685743358,0,Y,1.1436983749691121,0.12444029170456709,0.26306682088232819
1.0342427830414644,0.80000000000000004,N,1.0354413276444143,0.42671508009767001,0.26306682088232819
0.3445408863519831,0,N,0.23984535484868369,0.30076585934729277,0
0.61422350579255591,0,Y,1.0956359789585779,0.44309610809441807,0.39460023132349231
0.55243125125594084,0.40000000000000002,N,1.0578393374357311,0.31151937484167269,0.26306682088232819
0.54846245774864655,0,N,1.7741090255538821,0.69659342814566583,0.13153341044116409
0.27905579348162779,0,N,1.492267402346479,0.15833290706123809,0.26306682088232819
0.083930680819490899,0,Y,1.5230646658095397,0.091801077198810102,0.26306682088232819
0.44077482704408633,0.80000000000000004,N,0.60334638875359525,0.28335712469629049,0.52613364176465638
0.080430080921260305,0.40000000000000002,Y,0.16378544659900371,0.1068647850034225,0
0.43408678986031002,0.40000000000000002,N,1.1740290132281868,0.55902886227685,0.39460023132349231
0.1240247971029457,0,N,0.22911297515701101,0.18610388431974759,0
0.0020464091521986,0,N,2.126411054563135,0.079149000641650605,0
0.2318767606636673,0.80000000000000004,Y,0.49695584224484057,0.38154827139239561,0.26306682088232819
0.54459288407903461,0.40000000000000002,Y,0.47969070969736738,0.41921593171593058,0.26306682088232819
0.37728343278716081,0,N,0.86139012655772385,0.1960684397307613,0.52613364176465638
0.1111200169643842,0,N,1.7190472514835613,0.22756322206416371,0
0.37728343278716081,0.40000000000000002,N,1.0615723390676173,0.1960684397307613,0
0.36408719437540749,0.40000000000000002,N,0.62901077497281233,0.33906704462338139,0.26306682088232819
0.26943146922643929,0,N,0.84739137043815072,0.18031608866185339,0.26306682088232819
0.73615538444438944,0,N,1.9696249860239177,0.48527213306147221,0
0.1116223173926511,0,Y,1.6910497392444157,0.16301803814430871,0.26306682088232819
0.17313861675571221,0.40000000000000002,Y,0.72980181903373775,0.13994643770302789,1.0522672835293128
0.51015429854347416,0,N,0.25804373780412859,0.19991128245861811,0
0.16654049754983549,0,Y,1.238889916582208,0.11844037631921089,0.13153341044116409
0.54459288407903461,0.40000000000000002,N,0.50815484714049908,0.46117334806090621,0.26306682088232819
0.59370670373180112,0,Y,1.9308950940930991,0.37532601813518129,0.78920046264698474
0.184499288170342,0,N,0.62667764895288358,0.14775444255151129,0.65766705220582056
0.74414878261767436,0,Y,1.5608613073323869,0.31041223516711358,0
0.71190233537090841,0.80000000000000004,N,1.2010932750593617,0.39676502760796151,0
0.12342947807685151,0,N,1.1268998676256246,0.10578225837740859,0.13153341044116409
0.1175755076535925,0.40000000000000002,N,0.75919920688484122,0.23791561945225281,0
0.3117983399168055,0,Y,1.9481602266405729,0.23524473076012409,0.13153341044116409
0.54103337240218008,0,N,1.8385033037039171,1.3756748960064309,0
0.36644986676021851,0,N,1.5902586951834901,0.27280573453996337,0
0.1550185938989718,0,N,1.2440227938260515,0.057010607665209601,0.78920046264698474
0.37728343278716081,0.40000000000000002,N,0.93978316082733238,0.39249548412032631,0.13153341044116409
0.2041448160314486,0,N,0.10919029773266919,0.1660097914874718,0.13153341044116409
0.22060910784686469,0.40000000000000002,N,1.540796423560999,0.1138408688110792,0.78920046264698474
0.1444888886249317,0,N,2.1352769334388646,0.21612911848501221,0
0.71190233537090841,0,Y,1.6182562074226361,0.68697084493943861,0
0.83096614058973628,0,N,1.7643098962701809,0.41433397082949419,0.65766705220582056
0.87909396310553434,0,N,1.1693627611883295,0.39768391475364789,0.13153341044116409
0.093018597827209296,0,N,0.50348859510064137,0.1189773882874692,0.13153341044116409
0.168034996354926,0.40000000000000002,N,0.94818241449907636,0.19115776362102219,0
0.22634525471287589,0.40000000000000002,N,0.62994402538078398,0.30916912704559141,0.26306682088232819
0.15472093438592471,0,Y,0.16145232057907499,0.098922303407887699,0.39460023132349231
0.062012398551472801,0,N,0.79046309555188721,0.079553922582716402,0
0.21704339493015501,0.80000000000000004,Y,1.4367390030721729,0.099088031268091806,0.78920046264698474
0.076746544447302806,0.40000000000000002,Y,0.58888100743003646,0.064440839511022502,0.26306682088232819
0.1240247971029457,0.40000000000000002,N,0.89125413961281286,0.092872639830472004,0
0.81168028464022823,0,N,0.91318552420014376,0.36819979473139908,0.13153341044116409
0.41649077177132959,0.80000000000000004,N,0.90338639491644279,0.076530545201422606,0.26306682088232819
0.27905579348162779,0.40000000000000002,N,0.636010153032599,0.2482580224509327,0
0.20245807879084851,0.80000000000000004,N,0.65094215956014356,0.2952177798652294,0.39460023132349231
0.168034996354926,0.80000000000000004,Y,0.51282109918035679,0.15923836890771789,0.26306682088232819
0.27905579348162779,0,N,0.36023465747701122,0.41400251510908598,0
0.15472093438592471,0.40000000000000002,N,1.0172429446889697,0.11133242623934859,0
0.4000047756164205,0,N,1.5650609341682589,0.41435783802808351,0.26306682088232819
0.16586456240562439,0,N,1.1082348594661939,0.1048791832507877,0.52613364176465638
0.27905579348162779,0.40000000000000002,N,0.70180430679459183,0.1239497461885624,1.183800693970477
0.093018597827209296,0,Y,0.30563950861067668,0.099088031268091806,0.13153341044116409
0.60034823161666384,0,Y,0.62714427415686924,0.30338431478752081,0
0.20154029529228679,0.80000000000000004,N,0.75126657841708311,0.22339638211545779,0.39460023132349231
0.43408678986031002,0,N,1.8235712971763729,0.74549135125540111,0
1.0342427830414644,0.40000000000000002,Y,0.7862634687160156,0.42671508009767001,0
0.20464091521986039,0,Y,0.1796507035345199,0.22637978193911459,0
0.76438032764509234,0,N,1.5561950552925294,0.34751260201418038,0
0.24314441348046989,0,N,0.92765090552370277,0.1936018393415575,0.52613364176465638
0.093018597827209296,0,N,1.5613279325363727,0.18610388431974759,0.26306682088232819
0.34416261072081922,0.80000000000000004,N,0.78766334432797291,0.22525727775546381,0.26306682088232819
0.17980494959999549,0.40000000000000002,N,1.0559728366197882,0.1686758321548871,0.13153341044116409
0.26131714687597901,0,N,1.2645543028014254,0.26007840172225227,0.13153341044116409
0.31006199275736429,0,N,1.5799929406958031,0.16372838564232139,0.13153341044116409
0.50540104819450371,0,Y,0.1203893026283275,0.28637923413265931,0.39460023132349231
0.1085216974650775,0,N,1.6887166132244866,0.22339638211545779,0
0.29455889311949601,0,N,1.1660963847604289,0.43472051142948398,0
0.51481453029461732,0,Y,0.50255534469266983,0.2184687752117194,0.13153341044116409
0.70192454044397645,0.40000000000000002,N,0.64394278150035678,0.4404051560384753,0
0.3666638095352211,0,Y,1.5435961747849134,0.34128065270753921,0.52613364176465638
0.43408678986031002,0,N,0.68407254904313253,0.22339638211545779,0.13153341044116409
0.077515498189341003,0,N,0.37983291604441349,0.1627960731974287,0.39460023132349231
0.35331254012708901,0,N,1.7251133791353763,0.26377669872865289,0.13153341044116409
0.41028643129625469,0.40000000000000002,N,0.89218739002078429,0.1175884664995657,0.52613364176465638
0.49919980833935651,0,Y,1.6084570781389349,0.36404235249213779,0
0.021642327094463999,0.40000000000000002,N,1.7013154937321022,0.031302725969754398,0.13153341044116409
0.1271254170305193,0.40000000000000002,Y,1.0377744536643434,0.15179478634769419,0.13153341044116409
0.22324463478530229,0.40000000000000002,N,0.31543863789437759,0.2180688504653582,0.13153341044116409
0.093018597827209296,0,N,0.063927652946049907,0.099088031268091806,0
0.43408678986031002,0,N,2.0461515194775841,0.44715136888971918,0.13153341044116409
0.43718740978788367,0,Y,0.27250911912768722,0.32142239763132352,0.9207338730881488
0.1240247971029457,0,N,0.70787043444640685,0.1239497461885624,0.26306682088232819
0.39616620814608428,0,Y,1.4302062502163724,0.41066438904639629,0.39460023132349231
0.1567673435381233,0,Y,0.77553108902434276,0.18031608866185339,0.39460023132349231
0.34416261072081922,0.40000000000000002,N,1.082103848042991,0.60128372358424409,0.13153341044116409
0.4147389215122505,0.40000000000000002,Y,0.34996890298932432,0.26769986949676161,0.13153341044116409
1.0342427830414644,0.80000000000000004,N,0.74520045076526797,0.53348350128678845,0.13153341044116409
0.87437481957576735,0.80000000000000004,Y,0.78299709228811509,0.87079414384898735,0
0.32629683869813991,0.40000000000000002,N,0.55248424151914666,0.28613728040696068,0.13153341044116409
0.37728343278716081,0,Y,0.58094837896227858,0.24517520082815261,0
0.25440896567734489,0,Y,0.7605990824967982,0.45734959909192102,0.26306682088232819
0.31006199275736429,0,Y,1.6859168620005722,0.31519328255451479,0.13153341044116409
0.48933983696967231,0,Y,1.6369212155820667,0.27779368070513533,0.26306682088232819
0.31522762555670197,0,N,1.3774776021659809,0.237601616620813,0.13153341044116409
0.16495298014691781,0,N,2.0592170251891848,0.1881922641963073,0.13153341044116409
0.16495298014691781,0,N,0.046195895194590698,0.1567671442487874,0.26306682088232819
0.60152026594928676,0.40000000000000002,N,0.28137499800341681,0.60825495936718743,0
0.43718740978788367,0,N,1.6210559586465507,0.34092428559860338,0
0.34387115244762728,0.40000000000000002,N,0.98597905602192359,0.25728780411219931,1.0522672835293128
0.61826361355818449,0,N,2.017220756830465,0.25994302995525381,1.0522672835293128
0.27905579348162779,0,N,1.9056973330778679,0.32392397838345971,0
0.086817357972061998,0,N,0.16611857261893259,0.11301058864015549,0.13153341044116409
0.81168028464022823,0,N,1.9425607241927436,0.5064091478871029,0.13153341044116409
0.37728343278716081,0,Y,1.2580215499456249,0.32701977779547281,0
0.27905579348162779,0,N,0.14138743680768709,0.18610388431974759,0.13153341044116409
0.17313861675571221,0,N,0.78579684351202961,0.16333062386083241,0.65766705220582056
0.2356471144955968,0,Y,0.9855124308179376,0.14218160085091161,0.13153341044116409
0.85267048008275181,0,N,1.2290907872985073,0.57414746463821764,0
0.14262851666838749,0.40000000000000002,Y,0.41436318113935999,0.13886674530684651,0.78920046264698474
0.23837566003186161,0.40000000000000002,N,0.69480492873480537,0.2310679710070046,0
0.40399837408313538,0,Y,2.045684894273597,0.26124080887854462,0.13153341044116409
0.15503099637868209,0.40000000000000002,Y,0.93978316082733238,0.089143390050900995,0.26306682088232819
1.0542107753750387,0,Y,1.1590970067006421,0.52173636448113969,0.78920046264698474
0.47542425473472177,0.80000000000000004,Y,0.79559597279573069,0.30419430783964369,0.13153341044116409
0.68360297729194386,0,N,1.5487290520287569,0.49077933996595152,0.26306682088232819
0.4709221545998849,0,N,0.75219982882505443,0.26794846128706779,0.39460023132349231
0.34971892163103119,0.40000000000000002,Y,0.75826595647686956,0.2285986855579594,0
0.3590207814137521,0,N,1.8161052939126008,0.23419256022731591,0.26306682088232819
0.71190233537090841,0,Y,0.4848235869412108,0.96561785257913557,0.13153341044116409
0.23638196141843179,0,N,1.2584881751496104,0.21404096236343911,0.26306682088232819
0.71190233537090841,0,N,1.6798507343487572,0.51022894385132189,0.78920046264698474
0.15472093438592471,0,Y,0.1679850734348757,0.12728831976122559,0.52613364176465638
0.71190233537090841,0,N,0.151186566091388,0.2974841195412703,0.13153341044116409
0.1557658433015171,0,N,1.2066927775071905,0.1280064240987798,0.13153341044116409
0.3117983399168055,0.40000000000000002,Y,0.83619236554249243,0.16456373759294529,0
0.48933983696967231,0,N,2.0298196373380808,0.50031555374728376,0.13153341044116409
0.66154826774711251,0,N,1.2001600246513899,0.41612401072368832,0.13153341044116409
0.42348266970800807,0,N,0.38776554451217138,0.25388948795806737,0.26306682088232819
0.18541707166890381,0.40000000000000002,N,0.6327437766046986,0.19245740716920279,0.13153341044116409
0.44338864964303087,0,N,1.7918407833053407,0.32568440803440402,1.5784009252939697
0.15503099637868209,0.40000000000000002,Y,0.1959825856740216,0.14881138652403739,0.26306682088232819
0.093018597827209296,0,Y,1.2258244108706069,0.2482580224509327,0
0.58911778623899214,0,Y,0.56741624804669122,0.4258413914593121,0.26306682088232819
0.3445408863519831,0,Y,0.65794153761992991,0.074922492696471596,0
0.4000047756164205,0,Y,0.47269133163758081,0.27248114063914958,0.26306682088232819
0.25440896567734489,0,N,1.1007688562024216,0.34292256680048872,0.13153341044116409
0.73242223805159079,0,Y,1.9686917356159459,0.30571084455500402,0.13153341044116409
0.34017521349395952,0,Y,1.9150298371575831,0.22285937014719959,0.26306682088232819
0.15503099637868209,0.40000000000000002,Y,0.36070128268099699,0.1115188887283271,0.26306682088232819
0.1557658433015171,0,N,1.949093477048544,0.17935245051881221,0.39460023132349231
0.49470701006430229,0,Y,0.33783664768569438,0.3609545336746528,0.13153341044116409
0.391099795184429,0.40000000000000002,N,0.52448672928000095,0.2252792057441676,0
0.1485320970104877,0,Y,0.21838059546533839,0.1230348120476424,0
0.52988974438248038,0,N,1.950026727456516,0.84290867862224506,0.13153341044116409
0.34106819203310068,0,N,1.0765043455951619,0.21123000304958969,0
0.1396488209179893,0,N,2.1912719579171567,0.21234005153897681,0
0.2325464945680232,0,N,1.8455026817637039,0.42228972855424429,0
0.21396757996200191,0.80000000000000004,Y,0.85299087288598008,0.18379174945641349,0.13153341044116409
0.060474491067396302,0,N,1.901497706241996,0.099666661663890099,0.52613364176465638
0.13952789674081389,0,N,0.41156342991544548,0.083018917722907107,0.65766705220582056
0.41002597922233852,0,Y,1.1968936482234891,0.23539628747116589,0
0.48320060951307647,0,Y,0.33410364605380838,0.1418158360325312,0.13153341044116409
0.36644986676021851,0.80000000000000004,N,0.48202383571729601,0.27280573453996337,0.13153341044116409
0.37728343278716081,0,N,0.83572574033850644,0.42665668004612189,0
0.27905579348162779,0.80000000000000004,N,0.73493469627758123,0.16538581341435399,0.52613364176465638
0.30076013297464338,0,N,1.8940317029782237,0.19915625854824609,0.52613364176465638
0.2480495942058914,0,N,1.1926940213876176,0.095536368363023996,0.13153341044116409
0.15503099637868209,0,N,1.2440227938260515,0.099088031268091806,0.13153341044116409
0.15503099637868209,1.2,N,0.90991914777224359,0.23517297999436509,0.13153341044116409
0.38035924775531388,0,N,1.788107781673455,0.39545501674539391,0
0.19840246792558219,0,N,1.206226152303205,0.22037718149391711,0.13153341044116409
0.16052219427041509,0,N,1.7176473758716042,0.23000088347507811,0.13153341044116409
0.3445408863519831,0,N,1.7484446393346649,0.22548476199201761,0.26306682088232819
0.44002137640168598,0.40000000000000002,N,1.0247089479527418,0.70339945816337401,0
1.4882975652353487,0.40000000000000002,Y,0.4204293087911749,0.77722965359940943,0
0.037145426732332197,0.40000000000000002,Y,1.616389706606693,0.16357921565113859,0.26306682088232819
0.67475690863857618,0.80000000000000004,N,0.50675497152854165,0.56554259369683546,0.39460023132349231
0.27905579348162779,0.40000000000000002,Y,0.89918676808057096,0.14881138652403739,0.26306682088232819
0.1444888886249317,0,Y,2.1054129203837757,0.2634858172458463,0
0.12342947807685151,0,N,2.186605705877299,0.1234724022167773,0.39460023132349231
0.73645924519729167,0,N,0.93511690878747478,0.61501735716247474,0.26306682088232819
0.12576114426238691,0.40000000000000002,N,1.0746378447792189,0.1073847170076903,0
0.1976366148034715,0.40000000000000002,N,0.44329394378647757,0.36630623086332409,0
0.67666378989403397,0,N,1.869767192370964,0.30914876534179497,0.39460023132349231
0.091573708940959897,0,N,2.0872145374283302,0.1175871239696451,0
0.19432205210089529,0.40000000000000002,N,0.6327437766046986,0.2164510273259847,0.39460023132349231
0.35058089397089659,0,N,0.67567329537138876,0.22911705127731979,0.13153341044116409
0.4526905094257519,0,Y,0.70927031005836427,0.1935623838788896,0
0.062012398551472801,0.40000000000000002,N,0.23424585240085441,0.1115188887283271,0
0.13952789674081389,0,N,1.7157808750556611,0.1461476579914853,0.52613364176465638
0.15935636117764729,0,N,1.3550795923746639,0.18280722751460679,0.13153341044116409
0.63761148190624384,0,N,1.5650609341682589,0.40172910657454419,1.0522672835293128
0.27905579348162779,0,N,0.93884991041936083,0.2482580224509327,0.39460023132349231
0.41845346418548368,0,Y,1.1334326204814251,0.36003109684423551,0.26306682088232819
1.0131554669140359,0,Y,0.55155099111117534,0.62757060860047553,0
0.15503099637868209,1.2,N,0.73493469627758123,0.1115188887283271,0.39460023132349231
0.1557658433015171,0,N,1.9178295883814975,0.17935245051881221,0
0.15503099637868209,0,N,0.244978232092527,0.1115188887283271,0.26306682088232819
0.31066971426316869,0,N,0.1241223042602137,0.2344690468059733,0.26306682088232819
0.086569308377856105,0.40000000000000002,N,0.83199273870662049,0.093916829768751903,0.26306682088232819
0.12871913567329221,0,N,2.0293530121340959,0.127713752576079,0
0.36098657444783377,0,Y,1.5258644170334543,0.37681473464718612,0
0.77515498189341081,0,N,1.8207715459524587,0.77532534949196918,0
0.1240247971029457,0.40000000000000002,Y,0.40223092583573022,0.1239497461885624,0
0.34106819203310068,0,N,0.69713805475473412,0.22339638211545779,0
0.85670128598859752,0.40000000000000002,Y,0.71207006128227868,0.85378876485414346,0.26306682088232819
0.2821564134092015,0,Y,1.3751444761460521,0.21487236130929671,0.13153341044116409
0.093018597827209296,0,N,1.648120220477725,0.099088031268091806,0.26306682088232819
0.1085216974650775,0,Y,1.6047240765070487,0.33527387550258858,0.26306682088232819
0.3445408863519831,0,N,1.4563372616395751,0.18031608866185339,0.13153341044116409
0.035099017580133597,0,Y,1.5015999064261949,0.060801091726161202,0.26306682088232819
0.039191835884530797,0,N,1.9061639582818533,0.093452761926182099,0.13153341044116409
0.083716738044488301,0,N,2.1572083180261954,0.1018504357498113,0.52613364176465638
0.16495298014691781,0,N,2.1208115521153057,0.1567671442487874,0.13153341044116409
0.39785294538668442,0,Y,1.3863434810417106,0.41228735855046572,0.13153341044116409
0.168034996354926,0.40000000000000002,Y,1.1152342375259805,0.23903685569097871,0.13153341044116409
0.37517501123641078,0,N,1.1702960115963008,0.61030604674595146,0.52613364176465638
0.17271693244556219,0.40000000000000002,Y,0.56181674559886208,0.13965660041015959,0
0.093018597827209296,0.40000000000000002,N,0.77693096463630007,0.1189773882874692,0
0.13425684286393871,0,N,2.1632744456780109,0.29411399651547199,0
0.32816961313439441,0,N,0.86279000216968116,0.5756364794902048,0.13153341044116409
0.21396757996200191,0,N,1.4442050063359455,0.1680074014243968,0.78920046264698474
0.33176013101052459,0,N,0.79372947197978772,0.2905178809530316,0.26306682088232819
0.15503099637868209,0,N,0.94584928847914762,0.14881138652403739,0
0.25633445065236821,0.80000000000000004,Y,0.89872014287658497,0.18153458373483039,0
0.1085216974650775,0,N,0.51468759999629976,0.044392392696048701,0.52613364176465638
0.50850166812207742,0.80000000000000004,N,0.4204293087911749,0.43223436977143509,0.39460023132349231
0.1984396753647131,0,Y,0.1045240456928114,0.27560587902945211,0
0.74414878261767436,0,Y,0.39663142338790092,0.41400251510908598,0.26306682088232819
0.27905579348162779,0,N,1.6798507343487572,0.29798137770687833,0.26306682088232819
0.32816961313439441,0,N,0.82359348503487673,0.31963862287675909,0.26306682088232819
0.27905579348162779,0.40000000000000002,Y,0.83059286309466307,0.37256637329829878,0.52613364176465638
0.17313861675571221,0.40000000000000002,N,0.94911566490704757,0.16333062386083241,0.13153341044116409
0.88228140039108005,0,Y,1.3326815825833471,0.27425402598435761,0.13153341044116409
0.43408678986031002,0,N,1.9780242396956611,0.13126198457134969,0
0.66336833164459819,0,N,1.1684295107803575,0.4172185455339924,0.26306682088232819
0.1061652263201215,0.80000000000000004,Y,0.24451160688854121,0.13162700353977411,0
0.31006199275736429,0,Y,0.83899211676640695,0.27311973737140333,0.13153341044116409
0.8211929865780242,0.40000000000000002,N,0.55621724315103294,0.37236022037048411,0.26306682088232819
1.2092417717537207,0.80000000000000004,Y,0.50488847071259868,0.4258413914593121,0.65766705220582056
0.81168028464022823,0,Y,0.85905700053779477,0.5064091478871029,0
0.78557306485005818,0,N,0.53381923335971604,0.26154414605561488,0.26306682088232819
0.52988974438248038,0,N,1.7675762726980813,0.7933047339442415,0.39460023132349231
0.17671053091227701,0,Y,1.1558306302727419,0.19950531632761401,0.52613364176465638
0.27905579348162779,0,N,0.80866147850733217,0.1239497461885624,0.13153341044116409
0.093018597827209296,0,N,0.34670252656142397,0.084881379647820401,0.26306682088232819
0.15503099637868209,0,N,0.79372947197978772,0.1594663752392409,0.26306682088232819
0.60046605517391172,0.40000000000000002,N,0.87398900706533933,0.34486819099548649,0.65766705220582056
0.43408678986031002,0.40000000000000002,N,0.62947740017679832,0.37256637329829878,0
0.1506808266202963,0,N,1.8944983281822096,0.174459674808015,0.13153341044116409
0.1444888886249317,0,N,2.1698071985338112,0.093452761926182099,0.13153341044116409
0.43408678986031002,0,Y,0.52541997968797227,0.37256637329829878,0.13153341044116409
0.52617520170924725,0.40000000000000002,N,0.62107814650505444,0.47831723139256338,0
0.27905579348162779,0,Y,0.36256778349694008,0.074226390932616904,0.26306682088232819
0.71190233537090841,0.80000000000000004,Y,0.28464137443131721,0.44640551893380509,0
0.32816961313439441,0.40000000000000002,N,0.38356591767629949,0.28763890012320281,0
0.2821564134092015,0,N,0.97244692510633601,0.25074423869397722,0
0.43408678986031002,1.2,Y,0.77273133780042835,0.29405582021891069,0.39460023132349231
0.15472093438592471,0,N,1.0732379691672616,0.12728831976122559,0.26306682088232819
0.15503099637868209,0,Y,0.049928896826476901,0.1115188887283271,0.13153341044116409
0.16654049754983549,0,N,1.6345880895621381,0.18971976490601961,0
0.072876970777690897,0,N,1.8119056670767288,0.065401792594222394,0
0.32816961313439441,0,N,1.3928762338975111,0.43163768980670381,0.39460023132349231
0.168034996354926,0,N,0.74706695158121106,0.15923836890771789,0.13153341044116409
0.33894426738271272,0,N,1.4801351470428492,0.4445968327907131,0.13153341044116409
0.54726561845660315,0,Y,1.9929562462232064,0.46331639873923453,0
0.0062012398551472003,0,N,0.30050663136683331,0.081006838296837302,0
0.33176633225037971,0.40000000000000002,Y,0.78206384188014344,0.2292846437624137,0.39460023132349231
0.1085216974650775,0,N,0.87352238186135356,0.33527387550258858,0
0.58911778623899214,0,Y,1.2034264010792901,0.4258413914593121,0
0.035099017580133597,0,N,1.8133055426886864,0.1056515108801368,0.13153341044116409
0.045740345171566298,0,Y,1.8235712971763729,0.045794590613167402,0.13153341044116409
0.53731882972894685,0,N,1.9028975818539533,0.45534080140565719,0
0.065571910228327396,0,N,1.3541463419666928,0.057720731408235498,0.13153341044116409
0.18603719565441859,0,Y,0.29070750208313217,0.1736730268595123,0.39460023132349231
0.17053409601655031,0,Y,0.64487603190832843,0.1006419350662435,0.52613364176465638
0.83468688450282469,0,N,1.2986179426923865,0.21884274437961479,0.39460023132349231
0.20895697815904291,0,N,1.82170479636043,0.25061020945689938,0
0.15503099637868209,0,N,1.006510564997297,0.2482580224509327,0.52613364176465638
0.3255898973546531,0,N,0.97524667633025064,0.26769986949676161,0
0.83716738044488359,0.40000000000000002,N,0.85019112166206545,0.56130564385227366,0.13153341044116409
0.40308059058457357,0,N,1.6201227082385792,0.26068887991116801,0.13153341044116409
0.13952789674081389,0.40000000000000002,N,0.0209981341793594,0.20475013321760269,0.13153341044116409
0.71306196722382087,0,Y,1.5701938114121019,0.59625669488138244,0.13153341044116409
0.4000047756164205,0.40000000000000002,Y,0.99111193326576685,0.15914774813807431,0.13153341044116409
0.48320060951307647,0.40000000000000002,N,0.36863391114875488,0.2057943231558825,0
0.1240247971029457,0,Y,0.16098569537508919,0.14881138652403739,0.13153341044116409
0.85670128598859752,0,N,1.6271220862983655,0.85378876485414346,0.26306682088232819
0.50775751933945978,0,N,0.30237313218277628,0.43163768980670381,0.9207338730881488
0.26943146922643929,0,N,0.88005513471715446,0.24054101129707089,0.13153341044116409
0.31006199275736429,0.40000000000000002,Y,0.34063639890960912,0.20475013321760269,0.26306682088232819
0.3445408863519831,0.80000000000000004,N,0.40269755103971588,0.30076585934729277,0.52613364176465638
0.39335704649170261,0,N,1.7120478734237747,0.1017214037074381,0.39460023132349231
0.50775751933945978,0,N,1.8828326980825651,0.30821018775727249,0.52613364176465638
0.26943146922643929,0,N,1.4078082404250556,0.48144055266794977,0
0.56741344674597671,0,N,1.4544707608236322,0.47947150878433631,0
0.43408678986031002,0,Y,1.5589948065164436,0.20305504002279651,0.13153341044116409
0.028426483495995102,0,N,0.72700206780982313,0.044317807700457297,0.52613364176465638
0.1178235572477984,0,N,2.003688625914879,0.14284458687672369,0.13153341044116409
0.40616880803243688,0,Y,1.1119678610980801,0.26254604630139439,0.26306682088232819
0.83623719446661149,0,Y,1.4297396250123866,0.37894003409656363,0.52613364176465638
0.15472093438592471,0,N,1.1282997432375821,0.22302345713750071,0.13153341044116409
0.89917977899635648,0,N,1.0139765682610691,0.44715136888971918,0.26306682088232819
0.27929454121605102,0,N,1.2673540540253398,0.37285352553132578,1.0522672835293128
0.50230042826693022,0,N,1.8823660728785792,0.36617339498617579,0
0.19840246792558219,0.40000000000000002,Y,0.6341436522166557,0.068621328513921595,0
0.3228303456191125,0,N,1.8870323249184371,0.34010101641726531,0.26306682088232819
0.58911778623899214,0.80000000000000004,Y,1.0466403325400728,0.18610388431974759,0.13153341044116409
0.081443983637576794,0,N,1.6527864725175829,0.17997299768213279,0
2.0092017130677209,0,Y,1.8893654509383664,0.70074035390054878,0
0.1444888886249317,0.40000000000000002,Y,0.53008623172782998,0.1051791641030564,0.26306682088232819
1.0139027163165812,0,N,1.4927340275504652,0.71778832092787537,0
0.27694117069102259,0,Y,0.52402010407601496,0.1848322101449138,0.13153341044116409
0.13952789674081389,0,Y,1.5333304202972269,0.12783435651395039,0
0.093018597827209296,0,N,0.017265132547473298,0.17513548945306889,0
1.0072301822324428,0,N,1.5258644170334543,0.55463334473166082,0.9207338730881488
0.051625321794101099,0,N,1.7703760239219957,0.079149000641650605,0
0.71190233537090841,0,N,1.5095325348939528,0.2745731751804934,0.52613364176465638
0.32816961313439441,0,N,0.95144879092697676,0.191639731862534,0.52613364176465638
0.086569308377856105,0,N,0.36070128268099699,0.1660097914874718,0.26306682088232819
0.98021758142342119,0,N,0.34763577696939552,0.40505559737792157,0
0.52617520170924725,0,Y,1.4180739949127426,0.3347144880356529,0.13153341044116409
0.3445408863519831,0,N,0.21651409464939539,0.60189039793838472,0.13153341044116409
0.43718740978788367,0,N,0.83759224115444986,0.3750525149563475,0.9207338730881488
0.51470290797722473,0,N,1.3172829508518169,0.52471976430479661,0.26306682088232819
0.54459288407903461,0,N,1.4652031405153048,0.30732933895933789,0
0.27905579348162779,0,Y,0.44469381939843489,0.37256637329829878,0.52613364176465638
0.43408678986031002,0,N,0.60941251640541028,0.3192913551372854,0.52613364176465638
0.093018597827209296,0,N,0.31917163952626387,0.099088031268091806,0
0.2821564134092015,0,Y,1.3527464663547353,0.37629562307786979,0.52613364176465638
0.52988974438248038,0.40000000000000002,Y,0.32150476554619267,0.53933245664106766,0
0.61826361355818449,0.80000000000000004,N,0.50722159673252754,0.82164658475900776,0.26306682088232819
0.077515498189341003,0,Y,0.92578440470775925,0.038603702018207398,0.65766705220582056
0.4709221545998849,0,Y,1.8860990745104655,0.20087171344684879,0.26306682088232819
0.1240247971029457,0,Y,1.0177095698929557,0.14881138652403739,0.52613364176465638
0.66043204457318594,0.40000000000000002,N,1.3518132159467635,0.36925151775423359,0
0.61826361355818449,0,Y,0.26177673943601459,0.5202446645693114,0.13153341044116409
0.31522762555670197,0,N,1.0489734585600017,0.11862154327350249,0.39460023132349231
0.43408678986031002,0.40000000000000002,N,0.30563950861067668,0.1594663752392409,0.13153341044116409
0.15472093438592471,0,N,2.0265532609101813,0.16887020065339839,0.26306682088232819
0.54459288407903461,0,Y,1.1870945189397879,0.21265614275029329,0.13153341044116409
0.062012398551472801,0,N,0.21838059546533839,0.074226390932616904,0.26306682088232819
0.21704339493015501,0,Y,1.0461737073360871,0.2127413934002543,0.65766705220582056
0.21396757996200191,0.40000000000000002,Y,0.52075372764811456,0.23535384860867431,0.39460023132349231
0.74414878261767436,0,N,1.3009510687123154,0.46579761778757428,0.26306682088232819
0.3445408863519831,0,Y,1.6989823677121734,0.45132812864283878,0
0.1463430593416207,0,N,1.5141987869338105,0.22417363235451601,0
0.29455889311949601,0,N,2.0078882527507504,0.325950751053661,0
0.37827563116398438,0,N,2.0419518926417117,0.32781537594344651,0
0.1240247971029457,0,N,1.1110346106901088,0.18610388431974759,0
0.43408678986031002,0.40000000000000002,N,0.58328150498220732,0.44715136888971918,0
0.1240247971029457,0,N,0.9855124308179376,0.13282886615873421,0.13153341044116409
1.016625060612991,0,Y,1.7526442661705366,0.7095182620317031,0.26306682088232819
0.41002597922233852,0.40000000000000002,N,0.37283353798462687,0.35327369624365279,0
0.31936075192015762,0,Y,1.113834361914023,0.22742598567227551,0.65766705220582056
0.1240247971029457,0,Y,0.016331882139501801,0.10619135707822749,0.26306682088232819
0.32816961313439441,0,Y,1.4871345251026358,0.23315291997376711,0.13153341044116409
0.81168028464022823,0.40000000000000002,Y,0.62714427415686924,0.5064091478871029,0.26306682088232819
0.52988974438248038,0,N,1.7307128815832054,0.32088605692802558,0.39460023132349231
0.035099017580133597,0,Y,2.1884722066932421,0.1442006912665669,0.26306682088232819
0.43408678986031002,0,N,0.750799953213097,0.44715136888971918,0.13153341044116409
0.37575172654293948,0.80000000000000004,Y,0.42976181287089038,0.39102168460743991,0.26306682088232819
0.21704339493015501,0.40000000000000002,N,0.51375434958832811,0.099088031268091806,0
0.1472515409803998,0,N,0.81706073217907593,0.3294849610697605,0.26306682088232819
0.27905579348162779,0.80000000000000004,N,0.444227194194449,0.17722468976458011,0.52613364176465638
0.168034996354926,0,N,1.568327310596159,0.19913761229934829,0.39460023132349231
0.41002597922233852,0.40000000000000002,Y,0.41342993073138851,0.30275481742472921,0.26306682088232819
1.2092417717537207,0.40000000000000002,Y,1.622455834258508,0.4968747241456648,0.26306682088232819
0.59221840616656585,0,Y,1.8030397882009996,0.2603645843503366,0.39460023132349231
0.58911778623899214,0,Y,0.67893967179928916,0.37256637329829878,0.65766705220582056
0.15217222480545919,0,N,1.4442050063359455,0.21995801381869329,0.13153341044116409
0.134814954450902,0,Y,1.41060799164897,0.094612931532606595,0.13153341044116409
0.098860165770757999,0,N,1.9369612217449139,0.16405812590783109,0.39460023132349231
0.1240247971029457,0,N,1.7447116377027785,0.14881138652403739,0.26306682088232819
0.093018597827209296,0.80000000000000004,Y,0.39429829736797217,0.099088031268091806,0.26306682088232819
0.30100508194892162,0,Y,1.4418718803160169,0.2658576201056535,0.13153341044116409
0.27905579348162779,0.40000000000000002,Y,0.33410364605380838,0.2482580224509327,0
0.084113617395217694,0,N,2.0125545047906082,0.1104090639939268,0.52613364176465638
0.14455710226333829,1.2,N,0.4255621860350185,0.1404131160204434,0.52613364176465638
0.1444888886249317,0,N,1.5496623024367284,0.1685018253601723,0.26306682088232819
0.73149205207331869,0,N,1.859034812679291,0.2206268174741616,0.39460023132349231
0.74414878261767436,0.40000000000000002,N,1.0060439397933114,0.23271950656438539,0
0.021642327094463999,0,N,1.7008488685281169,0.062964056598312404,0.13153341044116409
0.79785151976324975,0,Y,0.11152342375259799,0.33194238750450661,0.39460023132349231
0.14299438981984119,0,N,1.5739268130439881,0.26123894425365479,0
0.062012398551472801,0.40000000000000002,N,0.73306819546163826,0.13948826207510981,0
0.43718740978788367,0.40000000000000002,N,0.78719671912398692,0.7504637091564943,0.26306682088232819
0.1637747445744398,0.40000000000000002,N,0.61034576681338171,0.13351079677342659,0.78920046264698474
0.58911778623899214,0,N,0.95098216572299077,0.2127413934002543,0.13153341044116409
0.0020464091521986,0.40000000000000002,N,1.5057995332620666,0.039395197991423499,0.13153341044116409
0.15503099637868209,0,Y,0.11665630099644141,0.14881138652403739,0.39460023132349231
0.52617520170924725,1.2,Y,0.73353482066562392,0.44640551893380509,0.13153341044116409
0.2821564134092015,0.40000000000000002,Y,0.91785177624000158,0.15030308643586579,0.26306682088232819
0.34971892163103119,0,Y,1.562261182944344,0.2406490849556828,0
0.1240247971029457,0.40000000000000002,N,0.40549730226363062,0.1239497461885624,0.26306682088232819
0.15503099637868209,0,N,1.2085592783231336,0.10619135707822749,0
0.13425684286393871,0,N,1.9313617192970849,0.35458609382607947,0
0.38953088150107668,0,Y,0.99251180887772417,0.37430666500043341,0.13153341044116409
0.34078603561969151,0,Y,0.19271620924612121,0.23499434892992371,0.26306682088232819
0.48933983696967231,0,N,0.35696828104911082,0.2082556280103994,0.39460023132349231
0.391099795184429,0,N,1.5589948065164436,0.40578951373454109,0
0.22944587464044949,0,N,0.42742868685096153,0.28442048297843742,0.52613364176465638
0.1444888886249317,0,N,2.1371434342548081,0.1051791641030564,0.26306682088232819
0.61826361355818449,0.40000000000000002,N,0.87585550788128264,0.39009384726228258,0.13153341044116409
0.077205436196583696,0.40000000000000002,Y,0.1311216823200001,0.1297922126482251,0
0.92061746517560061,0.40000000000000002,Y,0.63880990425651329,0.7626807314343691,0
0.15503099637868209,0,N,0.75126657841708311,0.22339638211545779,0.26306682088232819
0.093018597827209296,0.40000000000000002,N,0.0545951488663345,0.065939177487458603,0
0.40618121051214717,0,N,1.6359879651740954,0.35019087462087262,0.52613364176465638
0.36408719437540749,0,N,1.8604346882912484,0.14585550856375379,0.26306682088232819
0.58911778623899214,0,N,1.7008488685281169,0.40832629860459652,0.39460023132349231
0.056741344674597599,0,N,1.8044396638129567,0.091413384391725805,0.13153341044116409
0.14262851666838749,0,N,1.3312817069713905,0.2084793829971737,0.52613364176465638
0.67506697063133358,0.40000000000000002,Y,0.82359348503487673,0.37707458877182659,0.39460023132349231
0.85670128598859752,0.40000000000000002,Y,0.78812996953195857,0.4741676951628348,0
0.4928094306686272,0,N,1.9360279713369428,0.39340124430678858,0.65766705220582056
0.15472093438592471,0,N,1.6523198473135967,0.1485627947337311,0.26306682088232819
0.70818779269767518,0,Y,1.5435961747849134,0.48021467368040921,0.13153341044116409
0.50621961185538322,0,N,1.3840103550217813,0.25809928886423389,0.13153341044116409
0.67845594821217148,0,Y,1.8301040500321737,0.14185820031002719,0.65766705220582056
0.074290853464664394,0,N,0.57114924967857761,0.1178137877712474,0
0.31365251063349447,0,N,0.53988536101153117,0.33127015293924111,0.39460023132349231
0.2041448160314486,0.80000000000000004,N,0.2743756199436303,0.2091423690229858,1.7099343357351331
0.34364170657298682,0.40000000000000002,N,0.43349481450277638,0.45024664620676319,0
1.2092417717537207,0,N,0.97244692510633601,0.80596568611587627,0.9207338730881488
0.72741163624863181,0,N,1.4782686462269059,0.40505559737792157,0
0.81168028464022823,0,N,1.1422984993571546,0.40505559737792157,0.26306682088232819
0.1444888886249317,0,N,2.0685495292688998,0.059948659811546803,0.39460023132349231
0.13823183761108809,0,N,1.5706604366160877,0.20319130680974201,0
0.13425684286393871,0,N,1.4838681486747354,0.087983145859480805,0
0.19769552658209541,0.80000000000000004,Y,0.99437830969366725,0.1096691808376599,0.52613364176465638
0.071314258334193706,0,N,0.10919029773266919,0.1227066380670402,0
1.1596318529125424,0.80000000000000004,Y,1.2370234157662654,0.46158714561644748,0
0.37759349477991822,0,N,1.8902987013463373,0.32726844417077461,0.26306682088232819
0.57361468660112391,0.80000000000000004,Y,0.91318552420014376,0.30264293993134211,0.13153341044116409
0.2204168694113551,0.40000000000000002,N,1.1129011115060516,0.21956681551681631,0.13153341044116409
0.077515498189341003,0,Y,2.2076038400566582,0.2896941642617199,0.13153341044116409
0.0020464091521986,0,N,2.1301440561950211,0.028036947352788499,0.13153341044116409
1.2092417717537207,0,Y,1.1469647513970125,0.4258413914593121,0.26306682088232819
0.20895697815904291,0,N,1.3312817069713905,0.16456373759294529,0
0.090488491966309106,0.80000000000000004,N,0.45215982266220722,0.1165429340313652,0
0.52710538768751936,0,N,1.1805617660839876,0.74549135125540111,0.65766705220582056
0.41548307029486808,0,N,1.406874990017084,0.21444618264448731,0.26306682088232819
0.13955270170023451,0.80000000000000004,N,0.34250289972555209,0.2560646101845,0.13153341044116409
0.74414878261767436,0,N,1.8226380467684016,0.74549135125540111,0.13153341044116409
0.48933983696967231,0,N,1.7255800043393621,0.35726578354768801,1.0522672835293128
0.34106819203310068,0,Y,1.3308150817674045,0.1189773882874692,0.52613364176465638
0.17313861675571221,0,Y,0.65280866037608654,0.16333062386083241,0.13153341044116409
0.15503099637868209,0.80000000000000004,N,0.83292598911459215,0.044392392696048701,0
0.12248688961886919,0,N,1.3508799655387922,0.1227165578714538,0
0.92619237980537805,0,N,1.9710248616358752,0.22989422693138231,0
0.45188434824458268,0,N,1.2547551735177245,0.33152329441427841,0
0.15503099637868209,0.40000000000000002,N,1.275286682493098,0.17864538476060551,0.26306682088232819
0.18541707166890381,0.80000000000000004,Y,0.84879124605010803,0.1297922126482251,0.78920046264698474
0.1444888886249317,0,N,0.61594526926121107,0.1685018253601723,0.13153341044116409
0.062012398551472801,0,Y,1.1227002407897528,0.1115188887283271,0.13153341044116409
0.66973390435590685,0,N,0.59168075865395109,0.73252005091711025,0
0.63557747523375563,0,N,0.90012001848854228,0.53412739355372918,0.26306682088232819
0.74414878261767436,0,N,1.2043596514872621,1.0355441201759248,0.39460023132349231
0.13642727681324029,0,N,0.56228337080284785,0.061604297543685203,0.52613364176465638
0.9766952771856976,0,N,1.3961426103254115,0.40364347965638919,0.78920046264698474
0.15503099637868209,0,N,0.69900455557067709,0.22339638211545779,0
0.50775751933945978,0,N,1.6303884627262659,0.47963731122953601,0.26306682088232819
0.44549086995392578,0.40000000000000002,N,0.78999647034790155,0.22888285439116271,0.26306682088232819
0.52617520170924725,0,Y,0.7321349450536665,0.19111174467874231,0.26306682088232819
0.332367852516329,0,N,1.4806017722468348,0.3492779542748336,0
0.32181954352272357,0.40000000000000002,N,0.79792909881565977,0.28254728081415892,0.26306682088232819
0.37207439130883718,0,N,1.8394365541118891,0.38748337241658293,0.13153341044116409
0.43408678986031002,0.40000000000000002,N,1.3620789704344505,0.44715136888971918,0.65766705220582056
0.58803877050419651,0,N,1.7783086523897538,0.29746226613756199,0
0.76458186794038463,0,N,1.4572705120475469,0.63756686263461571,0
0.85670128598859752,0,Y,1.1950271474075462,0.66694402777318651,0.52613364176465638
0.13937286574443519,0,N,2.1399431854787228,0.32235366588627801,0
0.33176013101052459,0,N,1.3546129671706784,0.43595616105144702,0.26306682088232819
1.3218934949623262,0,N,0.73446807107359557,0.32507959830515321,0
0.3445408863519831,0.80000000000000004,Y,1.2603546759655535,0.1502036646367424,0.39460023132349231
0.1830543992840927,0.40000000000000002,Y,0.4768909584734527,0.15108839185444781,0.65766705220582056
0.20300998913795659,0.80000000000000004,Y,0.98224605439003698,0.070006744807032298,0.26306682088232819
0.30695827220986299,0,N,1.281352810144913,0.1803011716627351,0
0.89917977899635648,0.40000000000000002,Y,0.57581550171843499,0.55902886227685,0
0.87445543569388418,0,N,2.0120878795866224,0.5441603434057003,0.13153341044116409
0.34106819203310068,0,N,1.0643720902915319,0.22339638211545779,0.13153341044116409
0.26943146922643929,0,N,1.7031819945480453,1.0320682356263775,0
0.3445408863519831,0.40000000000000002,N,1.2155586563829199,0.078195580643005497,0.13153341044116409
0.27905579348162779,0,N,1.5636610585563011,0.14881138652403739,0
0.19432205210089529,0,Y,1.0699715927393612,0.22548476199201761,0.26306682088232819
0.1444888886249317,0,N,1.8660341907390776,0.14035844521867491,0
0.6213394285263375,0,N,1.5043996576501093,0.34835444285942069,0.13153341044116409
0.49456128092770629,0,Y,1.6453204692538104,0.22950422198943479,0.13153341044116409
0.41002597922233852,0.80000000000000004,N,0.302839757386762,0.2118207907996694,0.26306682088232819
0.31936075192015762,0.40000000000000002,Y,1.0135099430570833,0.1682019936778949,0.26306682088232819
0.34711440089186929,0,N,1.3770109769619949,0.3634670038361455,0
0.28337805766066548,0.40000000000000002,Y,0.75733270606889791,0.3777649474910208,0
0.3565712916709689,0,N,1.8375700532959465,0.2660164115612676,0
0.27905579348162779,0,Y,0.16938494904683291,0.092872639830472004,0.78920046264698474
0.27905579348162779,0,N,1.1408986237451977,0.18610388431974759,0
0.37513470317735231,0.40000000000000002,Y,0.44609369501039209,0.32529686439731098,0.26306682088232819
0.061857367555094099,0.80000000000000004,Y,0.40736380307957359,0.12374254907080939,0.13153341044116409
0.53231442916584304,0,Y,1.1670296351684002,0.30076585934729277,0.52613364176465638
0.18541707166890381,0.40000000000000002,N,0.3051728834066908,0.11533100243800019,0.26306682088232819
0.16654049754983549,0,Y,0.90851927216028616,0.2372393572972254,0
0.093018597827209296,0.40000000000000002,N,0.13998756119572969,0.099088031268091806,0.13153341044116409
0.3036127033080111,0,Y,0.49462271622491188,0.20087171344684879,0
0.31936075192015762,0,Y,1.701782118936088,0.28057570104069529,0.13153341044116409
0.68734542554452505,0,Y,1.751711015762565,0.95963315253287984,0.13153341044116409
0.40308059058457357,0.40000000000000002,N,0.67427341975943178,0.217180990677838,0.13153341044116409
0.2318767606636673,0,N,1.9691583608199319,0.52660922599811399,0.13153341044116409
0.086569308377856105,0,Y,2.0088215031587224,0.14105454698252959,0.26306682088232819
0.74414878261767436,0.40000000000000002,N,0.53241935774775873,0.2660164115612676,0
0.25325863568421508,0,N,0.23797885403274061,0.1239677957574955,0.65766705220582056
0.63761148190624384,0,Y,0.4008310502237728,0.43433080482751879,0.26306682088232819
0.16495298014691781,0,N,1.5697271862081164,0.13432056607056261,0.39460023132349231
0.31936075192015762,0.40000000000000002,N,1.147898001804984,0.3367625920145933,0
0.74414878261767436,0.80000000000000004,N,0.97804642755416538,0.3881048891848462,0.78920046264698474
0.21396757996200191,0,Y,0.53241935774775873,0.1960684397307613,0.13153341044116409
0.16654049754983549,0,N,1.492267402346479,0.15804001178355059,0
0.95902174359852776,0.40000000000000002,N,0.750799953213097,0.39655790507520422,0
0.16495298014691781,0,N,0.789529845143916,0.39245573031767611,0.26306682088232819
0.46171331341499111,0,Y,0.2426451060725982,0.33827860663498449,0.26306682088232819
0.1304492815928783,1.2,N,0.46009245112996511,0.3880203843848411,0
0.34106819203310068,0,Y,1.3872767314496821,0.17864538476060551,0.13153341044116409
0.3445408863519831,0.80000000000000004,N,1.0461737073360871,0.36099078198251028,0.13153341044116409
0.391099795184429,0,Y,0.73260157025765249,0.3169446128359969,0.13153341044116409
0.44338864964303087,0.40000000000000002,N,1.0886366008987916,0.57021661161556303,0.39460023132349231
0.25888005961290611,0,Y,2.0116212543826371,0.3870400392027874,0
0.37759349477991822,0,N,1.9705582364318888,0.061071462335180099,0.13153341044116409
0.33579403753629788,0.40000000000000002,N,0.93511690878747478,0.19571542894662711,0.52613364176465638
0.021642327094463999,0,N,1.9346280957249853,0.084071610350684403,0.13153341044116409
0.37139535554469849,0.40000000000000002,N,0.88098838512512612,0.386830007855202,0.26306682088232819
0.85670128598859752,0,N,1.4479380079678317,0.71143084507365395,0.78920046264698474
0.74414878261767436,0.40000000000000002,Y,0.083525911513451997,0.74549135125540111,0.26306682088232819
0.48320060951307647,0,Y,0.7862634687160156,0.17634391555164111,0.26306682088232819
0.13952789674081389,0,Y,1.5025331568341662,0.090800817822933505,0.39460023132349231
0.52617520170924725,0.40000000000000002,N,0.82825973707473433,0.38258209401628829,0.52613364176465638
0.48765309972907223,0,Y,0.90198651930448537,0.27689202269343061,0.39460023132349231
0.039539105316419097,0,N,0.55341749192711831,0.056206655997729699,0
0.33707459356638581,0.40000000000000002,N,0.6453426571123142,0.44234809517363177,0
0.080430080921260305,0.40000000000000002,N,1.1595636319046283,0.1214861291991822,0.39460023132349231
0.35159169606728569,0,N,1.5599280569244152,0.20416009131747889,0.52613364176465638
0.3478771533940524,0,N,1.8277709240122451,0.45534080140565719,0.39460023132349231
0.1444888886249317,0,N,0.22537997352512479,0.2634858172458463,0
0.1085216974650775,0,N,1.6602524757813548,0.25782019181073079,0.26306682088232819
1.0072301822324428,0,Y,1.4675362665352336,0.29346063195409111,0.13153341044116409
0.67684982708968833,0.40000000000000002,Y,0.44562706980640637,0.39562700974522769,0
0.71190233537090841,0.40000000000000002,N,0.50535509591658434,0.35705269421528329,0.65766705220582056
0.3445408863519831,0,Y,0.40829705348754508,0.18031608866185339,0.26306682088232819
0.97653404494946361,0,N,0.80912810371131783,0.44030036411966927,0.13153341044116409
0.78916978396604354,0.40000000000000002,Y,0.29444050371501818,0.39422585601804722,0.26306682088232819
0.2480495942058914,0,Y,0.2743756199436303,0.30476182507109878,0.13153341044116409
0.71190233537090841,0.40000000000000002,N,1.0111768170371549,0.71446399308937014,0.39460023132349231
0.98021758142342119,0,Y,1.5557284300885432,0.39840947759076117,0.13153341044116409
0.43408678986031002,0,Y,1.5515288032526715,0.1115188887283271,1.183800693970477
0.33176013101052459,0,N,1.3000178183043436,0.2489641186041967,0
0.58911778623899214,0,Y,0.33037064442192221,0.31592742266612112,0.13153341044116409
0.17313861675571221,0,Y,1.9584259811282596,0.2755220454944074,0.39460023132349231
0.43408678986031002,0,Y,0.73260157025765249,0.53239135319634334,0.52613364176465638
0.3425378858787706,0,Y,0.47269133163758081,0.2242802143132161,0.39460023132349231
0.46171331341499111,0,N,0.90198651930448537,0.33827860663498449,0
0.30063610817754038,1.2,N,0.44002756735857718,0.22955695358131789,0.13153341044116409
0.27905579348162779,0,Y,0.46242557714989402,0.29798137770687833,0.39460023132349231
0.74724940254524796,0,Y,1.7246467539313908,0.1556483693149161,0.39460023132349231
0.31006199275736429,0,N,1.4260066233805009,0.32781537594344651,0
0.74414878261767436,0.40000000000000002,N,1.4465381323558739,1.0355441201759248,0.26306682088232819
0.039191835884530797,0,Y,0.151186566091388,0.1122149904921818,0
0.43408678986031002,0.40000000000000002,Y,1.2654875532093968,0.3192913551372854,0
0.76497564667118656,0,N,1.6499867212936681,0.42513551906103492,0.39460023132349231
0.89917977899635648,0,Y,1.2948849410605003,0.58847031968162056,0.13153341044116409
0.53820560702823295,0.40000000000000002,Y,1.0275086991766569,0.45605182016863027,0
0.45894135919974027,0,N,1.0088436910172256,0.39249548412032631,0.13153341044116409
0.74104816269010065,0.40000000000000002,N,1.2309572881144506,0.74250795143174442,0
0.14200219144301771,0,N,1.9514266030684728,0.1597065389250453,0
0.91546113423604558,0,N,1.4773353958189346,0.32488634858157578,0.13153341044116409
0.66278851571814201,0,N,1.4320727510323157,0.47647393781151709,0
0.43718740978788367,0,N,1.85810156227132,0.35158934328821179,0.13153341044116409
0.87090522587681241,0.40000000000000002,Y,0.93605015919544643,0.27083333433154838,0.13153341044116409
0.26704399188220751,0.40000000000000002,Y,0.3233712663621357,0.28642368679003177,0.13153341044116409
0.72887202823451891,0,N,1.6490534708856963,0.45661061095560118,0.13153341044116409
0.16654049754983549,0,N,1.5785930650838458,0.11844037631921089,0.13153341044116409
0.40644786382591858,0,N,1.4586703876595042,0.30029567553508452,0.52613364176465638
0.43408678986031002,0,N,1.7988401613651277,0.44715136888971918,0.13153341044116409
0.33579403753629788,0,N,1.0956359789585779,0.29375240845684469,0
0.66361328061887648,0,Y,1.6779842335328139,0.3034409993841703,0
0.2480495942058914,0.40000000000000002,N,0.61127901722135336,0.1914314159698472,0.39460023132349231
0.093018597827209296,0,Y,0.28790775085921749,0.074226390932616904,0.13153341044116409
1.7648728627749175,0.80000000000000004,Y,1.2122922799550195,0.86363398427221105,0
0.054930582636894598,0,N,2.1539419415982954,0.0776488726253204,0.78920046264698474
0.043284654188927997,0,N,1.9061639582818533,0.0384904819948996,0.26306682088232819
0.2325464945680232,0,N,1.5865256935516041,0.14052417307887899,0
0.69691393864101747,0,Y,1.4978669047943085,0.60552447726358105,1.183800693970477
0.43408678986031002,0,N,1.9336948453170135,0.55902886227685,0.26306682088232819
0.15503099637868209,0,Y,1.1096347350781512,0.17864538476060551,0.26306682088232819
0.074290853464664394,0,Y,0.82592661105480569,0.055928230209186899,0
0.54846245774864655,0.40000000000000002,Y,0.38869879492014281,0.25777178614859197,0.26306682088232819
0.13425684286393871,1.2,Y,0.43676119093067678,0.11322367797256019,0.13153341044116409
0.16495298014691781,0,N,2.0517510219254129,0.26151759379718431,0.13153341044116409
0.61826361355818449,0,N,2.0242201348902524,0.57808950541021098,0.13153341044116409
0.33504988875368019,0.40000000000000002,N,0.77506446382035699,0.29315572849211341,0
0.74811757612496854,0.80000000000000004,N,0.18011732873850561,0.62436531841493426,0
0.4754645627937803,0.40000000000000002,N,0.86325662737366693,0.4869648395364195,0
0.27905579348162779,0,Y,0.69807130516270577,0.2127413934002543,0
0.43408678986031002,0.80000000000000004,N,0.81239448013921822,0.44715136888971918,0
0.27905579348162779,0,N,1.3074838215681162,0.29798137770687833,0
0.24314441348046989,0,N,1.9112968355256967,0.25328199316897521,0.52613364176465638
0.15503099637868209,0.40000000000000002,Y,0.4190294331792177,0.049364750597141897,0.52613364176465638
0.51005197808586422,0,N,1.7904409076933836,0.72270145834246902,0.52613364176465638
1.4548108700175533,0.80000000000000004,Y,0.7498667028051258,0.76009099121744361,0.26306682088232819
0.16495298014691781,0.80000000000000004,Y,1.1483646270089696,0.2353299814100851,0.13153341044116409
0.25735145398861231,0,Y,1.8832993232865509,0.27709757894128051,0
0.18541707166890381,0,N,1.7815750288176539,0.34671021663160778,0.13153341044116409
0.53731882972894685,0.80000000000000004,N,1.0545729610078309,0.54648068261854943,0.13153341044116409
0.1637747445744398,0.40000000000000002,N,0.83759224115444986,0.39009384726228258,0.39460023132349231
0.1240247971029457,0,Y,1.1726291376162297,0.14881138652403739,0.26306682088232819
0.62809877996844798,0,N,1.9364945965409284,0.39600843741268221,0.26306682088232819
0.15472093438592471,0.80000000000000004,Y,0.89778689246861354,0.24784370280042239,0.26306682088232819
0.83716738044488359,0,N,1.1502311278249129,0.74549135125540111,0.13153341044116409
0.2954270666992167,0,N,1.2328237889303937,0.1959491037378151,0
1.0072301822324428,0,N,2.0335526389699679,0.4229403334707883,0.13153341044116409
0.32816961313439441,1.2,Y,1.4348725022562301,0.2156395425739501,0
0.27905579348162779,0,N,1.4852680242866927,0.14881138652403739,0.13153341044116409
1.2681783553370405,0,Y,0.80866147850733217,0.5205032507490267,0.65766705220582056
0.38225682715098902,0,N,0.55248424151914666,0.1165941739233365,0.13153341044116409
0.52617520170924725,0,N,1.4283397494004293,0.87564947789199776,0.26306682088232819
0.89917977899635648,0,Y,0.97291355031032201,0.14881138652403739,0.26306682088232819
0.13332665688566661,0,Y,0.70227093199857749,0.19729163365846061,0.13153341044116409
0.1085216974650775,0,N,0.1689183238428473,0.083549515381544398,0.13153341044116409
0.2480495942058914,0,Y,0.78159721667615789,0.22339638211545779,0.13153341044116409
0.92628539840320523,0,N,1.803506413404985,0.45116143117769197,0.13153341044116409
0.2821564134092015,0,N,1.8128389174847008,0.30096477753053508,0.52613364176465638
0.093018597827209296,0,N,0.36863391114875488,0.1189773882874692,0.39460023132349231
0.37207439130883718,0.80000000000000004,N,0.73913432311345295,0.32284301804235321,0
0.1147229373202247,0,N,0.49135633979701149,0.13986118705306691,0.13153341044116409
0.1240247971029457,0,Y,1.3186828264637742,0.097779512105435895,0.26306682088232819
0.3117983399168055,0,Y,0.58141500416626435,0.27451194089911279,0.13153341044116409
0.13332665688566661,0.40000000000000002,N,0.89638701685665623,0.21925273810038079,0
0.27905579348162779,0.80000000000000004,Y,0.81192785493523256,0.20682195522514121,0.26306682088232819
0.3445408863519831,1.2,Y,0.59121413344996543,0.20039108773525771,0.39460023132349231
0.55811158696325569,0,Y,0.7717980873924567,0.52449876896285919,0.39460023132349231
0.19432205210089529,0,N,0.2267798491370821,0.2164510273259847,0
0.20895697815904291,0,N,0.1441871880316016,0.3604090190168972,0
0.19432205210089529,0,N,0.32383789156612153,0.15450542884247309,0.26306682088232819
0.16495298014691781,0,N,0.28137499800341681,0.1043918448895933,0.13153341044116409
0.7241807902841001,0,N,0.3289707688099649,0.60517213774440726,0
0.14572913659596121,0,Y,0.33737002248170878,0.1059250140589706,0.39460023132349231
0.3199839765255999,0,Y,0.62527777334092616,0.18726412851116769,0.39460023132349231
0.1240247971029457,0,N,2.109145922015661,0.2482580224509327,0.26306682088232819
0.66807197207472746,0,N,1.6061239521190065,0.33596602426167688,0
0.83184671664916721,0.80000000000000004,N,0.53428585856370203,0.90206793084045245,0.26306682088232819
0.15472093438592471,0.40000000000000002,Y,0.16051907017110351,0.11133242623934859,0.26306682088232819
0.33176013101052459,0,N,1.4960004039783654,0.31129479941994681,0.13153341044116409
0.27905579348162779,0,N,1.4694027673511767,0.2127413934002543,0.13153341044116409
0.41002597922233852,0,N,1.2323571637264077,0.2118207907996694,0.13153341044116409
0.3445408863519831,0.40000000000000002,N,1.4171407445047708,0.36099078198251028,0.39460023132349231
0.74414878261767436,0.40000000000000002,N,0.91271889899615799,0.53239135319634334,0.13153341044116409
0.15503099637868209,0,N,0.43769444133864832,0.17864538476060551,0.13153341044116409
0.13332665688566661,0.80000000000000004,N,0.24871123372441309,0.15776158599500781,0.13153341044116409
0.16495298014691781,0,N,2.0867479122243453,0.3138928185713829,0
0.24254909445437581,0,N,0.8291929874827062,0.14587109682783239,0.26306682088232819
0.31384474906900411,0,Y,1.6509199717016398,0.1216317191105766,0.26306682088232819
1.7034805882089594,0,N,1.3723447249221374,0.83409832601800871,0
0.25034405295229589,0,N,0.26224336464000048,0.56362829519998614,0
0.58911778623899214,0,N,0.42182918440313227,0.4258413914593121,0.39460023132349231
0.040308059058457302,0,N,1.217425157198863,0.060907673684861302,0
0.26355269384375968,0.40000000000000002,Y,1.1213003651777953,0.083001091908960697,1.0522672835293128
0.29571852497240858,0,N,1.8814328224706081,0.39260736161371351,0.52613364176465638
0.43408678986031002,0,Y,0.34530265094946672,0.27933512880902323,0.52613364176465638
0.093018597827209296,0.80000000000000004,N,0.64020977986847072,0.14881138652403739,0.26306682088232819
0.43718740978788367,0,N,1.3294152061554472,0.30402880373442631,0.52613364176465638
0.47393595716948639,0,Y,1.275286682493098,0.1274973815038683,0.13153341044116409
0.52710538768751936,0,N,0.8842547615530264,0.38322136201350238,0.65766705220582056
0.13952789674081389,0.80000000000000004,Y,0.45869257551800768,0.1363805290638021,0.13153341044116409
0.59367569753252536,0.40000000000000002,Y,0.96824729827046419,0.50052938892964438,0.13153341044116409
0.99777019083341556,0,Y,0.66167453925181596,0.58885756497873121,0.39460023132349231
0.0918403622547313,0,N,1.6691183546570847,0.1734682910466139,0.13153341044116409
0.27905579348162779,0,Y,0.44796019582633528,0.18610388431974759,0
0.66278851571814201,0,N,1.0466403325400728,0.39700183496896441,0.13153341044116409
0.1240247971029457,0,Y,1.5799929406958031,0.10619135707822749,0
0.58911778623899214,0,Y,1.7573105182103941,0.82836356029197977,0.26306682088232819
0.15503099637868209,0.40000000000000002,N,0.52168697805608621,0.14881138652403739,0.13153341044116409
0.1240247971029457,0,Y,0.21604746944540951,0.1550267779616572,0.13153341044116409
0.29970902281919581,0,Y,0.52402010407601496,0.44160306565266899,0
0.062012398551472801,0,Y,0.034996890298932402,0.0369338931369066,0
0.44892015559382231,0,Y,0.29164075249110361,0.27451194089911279,0
0.78557306485005818,0.80000000000000004,Y,0.72840194342178055,0.7916859411999253,0
0.83468688450282469,0.80000000000000004,N,0.87258913145338235,0.2971289457922639,0.78920046264698474
0.67506697063133358,0.40000000000000002,N,0.46242557714989402,0.56579126007213731,0.13153341044116409
0.78420259084207056,0,N,1.5561950552925294,0.78403091017739979,0.39460023132349231
0.22621502867591781,0,N,1.4675362665352336,0.24713827791211879,0.13153341044116409
0.40399837408313538,0,N,1.2314239133184359,0.29861214301459499,0
0.59340904421875407,0,N,0.56694962284270545,0.37514701414576201,0.26306682088232819
0.50775751933945978,0,N,1.8543685606394336,0.80963444746402258,0
0.61454907088495114,0.80000000000000004,N,0.2547773613762282,0.44331986308119242,0
0.16215001973239121,0,N,0.53615235937964512,0.10289358149815291,0
0.32816961313439441,0,Y,1.4586703876595042,0.41106640217263413,0.39460023132349231
0.43408678986031002,0,Y,0.28417474922733138,0.27933512880902323,0.39460023132349231
0.47439484891876738,0.40000000000000002,Y,1.2939516906525286,0.1212149381552118,0.13153341044116409
0.13425684286393871,0,Y,1.238889916582208,0.198410408592332,0.26306682088232819
0.047377472493325197,0,N,0.62994402538078398,0.1253419497162718,0.26306682088232819
0.31006199275736429,0,N,0.83759224115444986,0.2340513708306613,0.13153341044116409
0.33486695217795343,0,N,1.5687939358001446,0.1169884302100327,0.52613364176465638
0.81168028464022823,0,N,1.6159230814027077,0.2892229362595734,0.13153341044116409
0.66278851571814201,0,N,1.2790196841249839,0.47647393781151709,0.13153341044116409
1.519303764511085,0,N,1.9262288420532416,0.53239135319634334,0.13153341044116409
0.66278851571814201,0.40000000000000002,N,0.4759577080654811,0.45069922796001199,0
0.43408678986031002,0.80000000000000004,N,0.49602259183686909,0.22339638211545779,0.13153341044116409
0.43408678986031002,0,Y,1.5510621780486855,0.3192913551372854,0.26306682088232819
0.41002597922233852,0,N,0.94771578929509059,0.30275481742472921,0.39460023132349231
0.74414878261767436,0,Y,0.55388411713110397,0.35145740243101048,0.26306682088232819
0.31936075192015762,0,N,1.9504933526605013,0.26301734888853662,0.13153341044116409
0.66278851571814201,0,Y,1.9803573657155904,0.34733180798486668,0.13153341044116409
0.2318767606636673,0,Y,1.3284819557474754,0.18031608866185339,0.26306682088232819
0.42947306740808039,0.40000000000000002,Y,0.24124523046064081,0.20103714296707059,0.26306682088232819
0.32816961313439441,0,N,0.62807752456484089,0.2156395425739501,0
0.34131624162730662,0.80000000000000004,Y,0.49835571785679789,0.3578880461659073,0
0.27905579348162779,0,N,0.1978490864899646,0.29798137770687833,0.13153341044116409
0.024711940822761898,0,N,0.67567329537138876,0.066656013880087697,0
0.58911778623899214,0,N,1.0457070821321011,0.9941079783651372,0
0.58911778623899214,0,Y,1.5655275593722444,0.087388479689630497,0.39460023132349231
0.21842007017799769,0,Y,1.5613279325363727,0.119639703048321,0.39460023132349231
0.47439484891876738,0,Y,1.79417390932527,0.34699438546481109,0
0.16887216373537081,0,N,1.3816772290018526,0.079775514604618597,0.26306682088232819
0.081310656980691204,0,N,0.29537375412298972,0.060355222622515699,0.9207338730881488
0.0792332416292168,0.40000000000000002,Y,0.58701450661409338,0.065936268672630499,0.78920046264698474
0.40616880803243688,0.40000000000000002,Y,0.41949605838320347,0.350180954816459,0
0.2115614988982048,0.80000000000000004,N,0.60894589120142428,0.22406190403112,0.26306682088232819
0.99862286131349842,0,Y,1.4983335299982941,0.61883111174205085,0.9207338730881488
0.35656509043111378,0,N,1.3555462175786497,0.2327157773146058,0.26306682088232819
0.19355309835885701,0,N,0.92018490225993022,0.1076762697554571,0
0.021642327094463999,0,N,1.1950271474075462,0.0277847754826939,0.13153341044116409
0.59739954206554136,0,N,1.6588526001693975,0.16759934691351619,1.183800693970477
0.3445408863519831,0,N,0.6962048043467628,0.22548476199201761,1.9730011566174612
0.062012398551472801,0,N,1.9392943477648432,0.063571402217413295,0.13153341044116409
0.2055897049176979,0.40000000000000002,N,1.002310938161425,0.22729270228515361,0
0.31936075192015762,0,N,2.0022887503029212,0.3367625920145933,0
0.074290853464664394,0.40000000000000002,N,0.35790153145708231,0.062964056598312404,0.39460023132349231
0.2260941044987424,0,Y,0.25664386219217122,0.076947848251756601,0.26306682088232819
1.2092417717537207,0,Y,0.65560841160000094,0.4968747241456648,0.26306682088232819
0.16495298014691781,0,N,1.9313617192970849,0.30375567348057048,0
0.31522762555670197,0.40000000000000002,Y,0.34996890298932432,0.2247389120361033,0.13153341044116409
0.6464172425005531,0,Y,1.1236334911977242,0.13543583550964119,0.39460023132349231
0.3445408863519831,0.40000000000000002,Y,1.221624784034735,0.36099078198251028,0.26306682088232819
0.3445408863519831,0,Y,0.16845169863886139,0.18031608866185339,0
0.34106819203310068,0,N,2.036352390193882,0.55902886227685,0
0.83539692646623909,0,Y,1.2869523125927422,0.80122640632600617,0
0.1240247971029457,0,Y,0.35370190462121037,0.18610388431974759,0.13153341044116409
0.1240247971029457,0,N,0.88098838512512612,0.18610388431974759,0.13153341044116409
0.36408719437540749,0,Y,1.7867079060614974,0.31643870281090042,0.52613364176465638
0.13937286574443519,0,N,2.0881477878363022,0.20456367072862411,0.13153341044116409
0.093018597827209296,0,N,0.48155721051331041,0.14881138652403739,0.13153341044116409
0.76665928329185884,0.40000000000000002,N,0.1861834563903205,0.47933479448741723,0
0.36277253152611622,0,N,1.2538219231097529,0.3153845184832112,0.13153341044116409
0.52988974438248038,0,N,1.3107501979960163,0.44938392156275719,0
0.68734542554452505,0,N,1.1301662440535247,0.69083546648600824,0.13153341044116409
0.061857367555094099,0,N,2.1348103082348788,0.17147373909450811,0
0.1093898710447981,0,N,1.825437797992316,0.1122149904921818,0
0.068151626008068594,0,Y,2.176339951389612,0.13215409570361869,0
0.72554506305223254,0,N,0.2067149653656942,0.51960539657209726,0.65766705220582056
0.1444888886249317,0,N,0.51468759999629976,0.076396143039366898,0.39460023132349231
0.093018597827209296,0.40000000000000002,Y,0.074193407433736702,0.14881138652403739,0
0.086569308377856105,0,N,1.3210159524837033,0.093916829768751903,0
1.1720343326228371,0.40000000000000002,N,0.44982669664227831,0.44485646316036681,0
0.052710538768751897,0.40000000000000002,Y,0.41063017950747399,0.0571784239052903,0
0.2821564134092015,0.40000000000000002,Y,0.44936007143829249,0.1670432411863865,0.52613364176465638
0.21805109640661641,0,N,1.6607191009853406,0.2159243826721137,0.26306682088232819
0.58911778623899214,0,N,1.6602524757813548,0.4968747241456648,0.65766705220582056
0.15503099637868209,0,Y,1.0863034748788629,0.089143390050900995,0.13153341044116409
0.32866571232280611,0,Y,1.5580615561084721,0.34571577488538741,0
0.048013099578477797,0.80000000000000004,N,0.69480492873480537,0.037657367594143398,0.26306682088232819
0.3117983399168055,0,N,0.1997155873059078,0.19597752062113541,0.13153341044116409
0.15503099637868209,0.40000000000000002,N,0.5678828732506771,0.17864538476060551,0
0.37207439130883718,0.40000000000000002,Y,0.96078129500669163,0.32284301804235321,0.39460023132349231
0.13547538649547511,0,N,1.9626256079641315,0.1737584266794644,0
0.10781165550166311,0,Y,0.49368946581694018,0.066426292093666101,0.65766705220582056
0.83623719446661149,0,N,1.8086392906488284,0.41686986067960258,0.13153341044116409
0.67475690863857618,0,N,1.4540041356196465,0.60596415581259255,0.52613364176465638
0.1918167511994158,1.2,N,0.82499336064683404,0.17830729097558959,0
0.34416261072081922,0,N,1.5967914480392906,0.40985208385941019,0
0.71190233537090841,0,N,1.8431695557437755,0.89316964252641362,0.39460023132349231
0.74414878261767436,0,Y,0.37096703716868379,0.62118300040803509,0.52613364176465638
0.295482877857913,0,Y,0.39243179655202909,0.1263131955288633,0.78920046264698474
0.99873448363089101,0.40000000000000002,Y,1.4974002795903223,0.66910826059026263,0.26306682088232819
0.15472093438592471,0,N,0.52308685366804353,0.31875859451377597,0.26306682088232819
0.74414878261767436,0,N,1.2183584076068348,0.62118300040803509,0.52613364176465638
0.20895697815904291,0,N,1.4096747412409989,0.32032376064626189,0.13153341044116409
0.0918403622547313,0,N,1.8506355590075476,0.29514714787440433,0.13153341044116409
0.051625321794101099,0,N,2.2066705896486867,0.13215409570361869,0
0.31936075192015762,0,Y,1.9187628387894691,0.21574470741773399,0.65766705220582056
0.60418059784714484,0,N,1.0555062114158025,0.30522805587854068,0.26306682088232819
0.15503099637868209,0,N,1.3658119720663369,0.099088031268091806,0
0.50775751933945978,0,Y,0.9444494128671902,0.15768879103931061,0.39460023132349231
0.34106819203310068,0,N,2.0316861381540243,0.29798137770687833,0
0.061857367555094099,0,N,1.1707626368002864,0.2027159766328378,0.13153341044116409
0.52988974438248038,0,N,0.60707939038548131,0.269486925991132,0
0.36423912475185849,0,Y,0.98737893163388035,0.2712863635947706,0.13153341044116409
0.18541707166890381,0.40000000000000002,N,1.3345480833992904,0.2259906720171142,0.52613364176465638
0.27595517355405419,0,Y,1.8800329468586503,0.075764258956716402,0.78920046264698474
0.1550185938989718,0,N,0.46195895194590819,0.17863345116131091,0
0.0918403622547313,0.40000000000000002,N,0.50348859510064137,0.1734682910466139,0.26306682088232819
0.1506808266202963,0.80000000000000004,Y,0.60101326273366662,0.087050535074605695,0.65766705220582056
0.2325464945680232,0.80000000000000004,N,0.71346993689423599,0.23444600004233559,0
0.27905579348162779,0,N,0.64160965548042803,0.13049226741684619,0.65766705220582056
0.093018597827209296,0,Y,0.62434452293295495,0.029475393577764599,0.39460023132349231
0.43408678986031002,0,Y,1.062038964271603,0.1115188887283271,0.52613364176465638
0.74414878261767436,0,N,1.8408364297238464,0.74549135125540111,0.13153341044116409
0.2325464945680232,0.40000000000000002,Y,1.0746378447792189,0.2109655246552225,0.52613364176465638
0.32816961313439441,0,Y,1.3583459688025643,0.28763890012320281,0.13153341044116409
0.3199839765255999,0,N,1.9444272250086865,0.24087060239258939,0.13153341044116409
0.3445408863519831,1.2,N,0.55435074233508996,0.2577480681199939,0.26306682088232819
0.24978594136533261,0,N,1.7531108913745226,0.13472973935637719,0.52613364176465638
0.51438044350475709,0.40000000000000002,N,0.46242557714989402,0.35421443679304743,0.39460023132349231
0.0155030996378682,0,N,0.79512934759174503,0.031606361486807101,0.13153341044116409
0.16495298014691781,0,N,0.098457918040996503,0.2353299814100851,0.13153341044116409
0.17467652423978869,0.40000000000000002,N,0.38403254288028532,0.2470249087188198,0
0.71190233537090841,0,N,1.1310994944614965,0.44640551893380509,0.39460023132349231
0.58911778623899214,0.40000000000000002,Y,0.59028088304199378,0.33113023148751158,0.39460023132349231
0.87090522587681241,0.80000000000000004,Y,0.92998403154363141,0.8674557194463155,0.39460023132349231
0.062012398551472801,0.80000000000000004,Y,0.39009867053210018,0.094244407069389399,0
0.16495298014691781,0,N,2.1464759383345227,0.1881922641963073,0
0.1772221332003267,0.40000000000000002,Y,0.98597905602192359,0.1109504018919293,0.26306682088232819
0.31936075192015762,0.40000000000000002,N,1.0298418251965853,0.3367625920145933,0
0.44445526289811621,0,N,1.5865256935516041,0.38088013900188761,0.26306682088232819
0.062012398551472801,0,Y,1.7111146230158034,0.1239497461885624,0.13153341044116409
0.74414878261767436,0.80000000000000004,Y,0.66074128884384442,0.2482580224509327,0.13153341044116409
0.091573708940959897,0,Y,0.89498714124469902,0.077237238034651295,0.9207338730881488
0.21396757996200191,0,N,1.9654253591880455,0.14696167863337009,0.65766705220582056
0.75017638775687745,0.40000000000000002,Y,0.66400766527174471,0.93920350180543843,0.13153341044116409
0.34106819203310068,0.80000000000000004,N,0.66960716771957418,0.29798137770687833,0.26306682088232819
0.59841964602171305,0,N,0.6327437766046986,0.50433322370480682,0.52613364176465638
0.21704339493015501,0,N,1.492267402346479,0.31368345848875773,0
0.66278851571814201,0,N,1.1786952652680445,0.59568209207534617,0.13153341044116409
0.1147229373202247,0,N,1.9817572413275475,0.062239537951137298,0.65766705220582056
0.13937286574443519,0.80000000000000004,N,0.76619858494462767,0.050871964188053301,0.78920046264698474
0.54075431660869844,1.2,Y,0.8179939825870477,0.45809544904783511,0
0.3160399879777262,0,Y,0.1763843271066195,0.1772616093373979,0.26306682088232819
0.18846808167763629,0,N,1.1754288888401443,0.26361261173835171,0.52613364176465638
0.20806399961990171,0.40000000000000002,N,0.85859037533380911,0.2126340655915982,0.52613364176465638
0.41002597922233852,0.40000000000000002,N,0.92438452909580238,0.1511981063829628,0.78920046264698474
0.74414878261767436,0,N,1.1838281425118879,0.62118300040803509,0.13153341044116409
0.66278851571814201,0,N,1.0877033504908205,0.66720693988264623,0.13153341044116409
0.1061652263201215,0,Y,0.68547242465508995,0.082132400465307495,0
0.13425684286393871,0,N,2.1786730774095409,0.14687769592833419,0
0.70310587663638202,1.2,N,1.0531730853958736,0.50418330786366805,0.13153341044116409
0.17313861675571221,0,N,1.949093477048544,0.13994643770302789,0.13153341044116409
0.48933983696967231,0.80000000000000004,N,0.47549108286149538,0.6584232141218358,0.26306682088232819
0.24160030475653821,0,Y,0.8935872656327416,0.1869989042668446,0
0.15503099637868209,0.40000000000000002,N,0.53055285693181564,0.089143390050900995,0.9207338730881488
0.1240247971029457,0,N,0.25664386219217122,0.057014486084980401,0
0.51134803721559008,0.80000000000000004,N,0.88005513471715446,0.20672484556088119,0.13153341044116409
0.8433686203000309,0.80000000000000004,Y,1.217425157198863,0.42030077047680781,0.13153341044116409
0.1485817069293289,0,N,1.5809261911037751,0.1539257542567366,0
0.16976514227451209,0,N,1.1469647513970125,0.20962083176970481,0.26306682088232819
0.31365251063349447,0,N,1.8786330712466932,0.46023685885626031,0.39460023132349231
0.0155030996378682,0,N,1.3709448493101799,0.027610768687979102,0.52613364176465638
0.4816006896304485,0,N,1.3079504467721017,0.49286898778743637,0
0.52617520170924725,0,Y,1.3723447249221374,0.53575834365232677,0.39460023132349231
0.20895697815904291,0.40000000000000002,Y,0.37190028757665539,0.1439484448114767,0.26306682088232819
0.78557306485005818,0,N,0.71720293852612205,0.78534957289945606,0.13153341044116409
0.13359951143929311,0.40000000000000002,Y,0.55248424151914666,0.2080397044481623,0.52613364176465638
1.1472293732022478,0,N,1.8305706752361592,0.79972888878452164,0.26306682088232819
0.21704339493015501,0,Y,0.30890588503857702,0.1322369596337207,0.52613364176465638
0.093018597827209296,0,N,0.094724916409110502,0.099088031268091806,0.13153341044116409
0.58680782439294976,0,N,1.6569860993534546,0.3298954768854957,0.13153341044116409
0.1291470212232973,0.40000000000000002,N,0.68780555067501903,0.10665430614586351,0.39460023132349231
1.1831345519635508,0,N,1.6915163644484017,0.43555176120535027,0.26306682088232819
0.1323096535494224,0,N,0.82499336064683404,0.086942312246002601,0.52613364176465638
0.50139504724807871,0,N,1.9476936014365869,0.51191501226166147,0.9207338730881488
0.093018597827209296,0,N,0.083525911513451997,0.099088031268091806,0
0.34364170657298682,0,N,1.9817572413275475,0.3601255960336498,0
0.74414878261767436,0,N,0.41249668032341702,0.35822308196610397,0.39460023132349231
0.093018597827209296,0.40000000000000002,N,0.87445563226932532,0.074226390932616904,0.13153341044116409
0.41002597922233852,0,N,0.31450538748640611,0.14109430078517979,0
0.91546113423604558,0,N,1.5398631731530272,0.50557797269623206,0
0.093018597827209296,0,N,0.78812996953195857,0.099088031268091806,0
0.15503099637868209,0,N,1.3485468395188631,0.14881138652403739,0.13153341044116409
0.41548307029486808,0.80000000000000004,N,0.60614613997750999,0.39742801363377372,0.13153341044116409
0.13952789674081389,0,N,1.7400453856629208,0.24094578406814551,0.13153341044116409
0.21396757996200191,0.40000000000000002,N,0.25897698821210008,0.17821144925625459,0.52613364176465638
0.13425684286393871,0.80000000000000004,N,0.82452673544284838,0.198410408592332,0
0.32629683869813991,0.80000000000000004,N,0.51048797316042771,0.23193531992073721,0.26306682088232819
0.53169430518032823,0,N,1.4600702632714615,0.45083087047723081,0
0.58911778623899214,0,N,1.7601102694343089,0.64820656142572308,0.13153341044116409
0.61857987679079696,0,Y,0.35650165584512511,0.1416932928847745,0.65766705220582056
0.14572913659596121,0,N,2.0242201348902524,0.28306437858859418,0
0.54459288407903461,0.80000000000000004,Y,0.33270377044185101,0.46117334806090621,0.52613364176465638
0.43408678986031002,0,N,1.2192916580148063,0.44715136888971918,0.13153341044116409
0.45559889091781591,0,N,1.2570882995376531,0.16685879249228891,0.78920046264698474
0.13952789674081389,0,N,1.9803573657155904,0.24094578406814551,0.26306682088232819
0.75965188225554248,0.80000000000000004,N,0.71207006128227868,0.47512074223650191,0.9207338730881488
0.43592235685743358,0.80000000000000004,Y,0.83712561595046386,0.2492392626529335,0.52613364176465638
0.33176013101052459,0,Y,0.83479248993053523,0.3486932079093969,0.39460023132349231
0.52617520170924725,0,N,1.6672518538411414,0.58237717305177505,0.39460023132349231
0.41002597922233852,0.40000000000000002,N,1.1278331180335961,0.35327369624365279,0.13153341044116409
0.3503700518158217,0,N,1.7745756507578676,0.30543987726602029,0
0.22609720511867001,0.40000000000000002,Y,1.2010932750593617,0.087992618153920898,0
0.43408678986031002,0,N,1.9481602266405729,0.55902886227685,0.39460023132349231
0.48933983696967231,0.40000000000000002,N,0.73913432311345295,0.35726578354768801,0
0.85670128598859752,0,Y,0.72560219219786581,0.35553615749992301,0
0.2480495942058914,0,N,0.2118478426095376,0.1115188887283271,0
0.27905579348162779,0,Y,0.44889344623430671,0.17722468976458011,0.13153341044116409
0.62595315097856696,0,N,1.6616523513933124,0.37590494687096199,0.13153341044116409
0.1093898710447981,0,N,0.84552486962220763,0.084071610350684403,0.26306682088232819
0.76275250218311619,0.80000000000000004,N,0.60474626436555257,0.47698536712628747,0.52613364176465638
0.50775751933945978,0.40000000000000002,N,1.3644120964543796,0.32363861619032702,0
0.18603719565441859,0,Y,1.0335748268284717,0.1156625327434041,0.52613364176465638
0.1444888886249317,0,Y,0.59448050987786571,0.093452761926182099,0.13153341044116409
0.26011100572415291,0,N,0.50022221867274097,0.13969710006276581,0.13153341044116409
0.58911778623899214,0,Y,1.0919029773266922,0.4258413914593121,0.65766705220582056
0.2055897049176979,0,N,1.1992267742434184,0.37906026510945701,0.26306682088232819
0.15503099637868209,0,N,0.20904809138562311,0.089143390050900995,0.39460023132349231
0.54671060748956746,0.40000000000000002,N,1.3578793435985788,0.4628714246555361,0
0.15472093438592471,0,N,1.885165824102494,0.22302345713750071,0
0.43408678986031002,0,Y,1.3616123452304647,0.23767858833626329,0
0.43408678986031002,0,N,0.84319174360227889,0.50817546975269889,0.13153341044116409
0.17554469781950929,0,N,1.7918407833053407,0.1416000616402853,0.26306682088232819
0.093018597827209296,1.2,N,0.6962048043467628,0.1189773882874692,0.13153341044116409
0.4588917492808991,0,N,1.1455648757850552,0.29425212792730721,0.39460023132349231
0.062012398551472801,0,Y,0.54361836264341723,0.043514900222915598,0.26306682088232819
0.37207439130883718,0.40000000000000002,N,0.53755223499160243,0.32284301804235321,0
1.1335835449009963,0,Y,1.4946005283664081,0.39984210618608129,0.26306682088232819
0.33707459356638581,0,N,2.0008888746909643,0.220994745257414,0.13153341044116409
0.4862082108428229,0.40000000000000002,N,1.2155586563829199,0.35511348432990641,0.13153341044116409
0.36091215956957201,0,N,1.9976224982630639,0.62814431638656476,0
0.15503099637868209,0.80000000000000004,Y,0.88658788757295515,0.14881138652403739,0.13153341044116409
0.1085216974650775,0,N,1.5935250716113905,0.066767891373474803,0.26306682088232819
0.70075870735120871,0,Y,1.0004444373454819,0.20672969358559459,0
0.51503157368954744,0,Y,1.8991645802220671,0.29152731428336581,0.13153341044116409
0.27905579348162779,0,Y,0.33130389482989381,0.1239497461885624,0.13153341044116409
0.43408678986031002,0,Y,1.6504533464976536,0.1239497461885624,1.0522672835293128
0.52710538768751936,0.80000000000000004,Y,0.8842547615530264,0.14246375588923391,0.39460023132349231
0.25888005961290611,0,Y,1.2790196841249839,0.13910489519776989,0
0.43408678986031002,0,N,1.5137321617298245,0.13126198457134969,0
0.184499288170342,0.80000000000000004,N,0.92951740633964564,0.2069996166846399,0.26306682088232819
0.018572713366166099,0.40000000000000002,N,0.4974224674488264,0.059272099316537097,0
0.1085216974650775,0.40000000000000002,N,0.24451160688854121,0.37256637329829878,0.39460023132349231
0.0040928183043972,0.80000000000000004,Y,0.47409120724953813,0.041856502845940398,0
0.65113018479046492,0,N,0.65560841160000094,0.29798137770687833,0.26306682088232819
0.68319059484157652,0.40000000000000002,N,0.87818863390121138,0.85863678956758593,0
0.87800564551095595,0,Y,1.2146254059749486,0.43696455019184299,0
0.46509298913604641,0.40000000000000002,N,0.29770688014291857,0.23831338123374191,0.13153341044116409
0.4370261775516498,0,N,1.4964670291823512,0.32131156432787461,0.13153341044116409
0.61826361355818449,0,Y,0.99857793652953897,0.3120033568780653,0.65766705220582056
0.48933983696967231,0,N,1.7997734117730988,0.56858931618174946,0
0.90228039892392997,0.40000000000000002,N,0.64860903354021449,0.34502728079108308,0.13153341044116409
0.48933983696967231,0,N,1.299551193100358,0.2604091861777002,0.13153341044116409
0.2954270666992167,0.40000000000000002,N,0.3336370208498225,0.28008097876493732,0
0.10542107753750379,0.40000000000000002,N,1.2533552979057672,0.2184240242143646,0
0.52988974438248038,0.80000000000000004,N,0.74380057515331077,0.29946979587890071,0.26306682088232819
0.1444888886249317,1.2,Y,0.57954850335032126,0.1685018253601723,0.39460023132349231
0.21704339493015501,0,N,0.8226602346269053,0.23831338123374191,0.39460023132349231
0.27429324127287469,0.40000000000000002,Y,0.96358104623060636,0.12204037030142199,0.26306682088232819
0.24978594136533261,0.40000000000000002,N,0.4087636786915308,0.1685018253601723,0.13153341044116409
0.81764277676095232,0,Y,1.3210159524837033,0.3398770376755042,0.39460023132349231
0.15503099637868209,0,N,1.9794241153076189,0.22339638211545779,0.39460023132349231
0.85841592880854567,0,Y,1.1637632587405,0.35622353281929348,0
0.062012398551472801,0.40000000000000002,N,0.1236556790562278,0.14881138652403739,0
0.028488495894546599,0,N,0.79932897442761697,0.14275508488201399,0
0.28820882350782517,0,N,1.7447116377027785,0.25559718601712861,0.26306682088232819
0.41002597922233852,0,Y,0.34296952492953792,0.30275481742472921,0.26306682088232819
0.54459288407903461,0.40000000000000002,N,0.71207006128227868,0.30732933895933789,0.39460023132349231
0.098847763291047705,0,N,0.46242557714989402,0.124586179955944,0.26306682088232819
0.32629683869813991,0.40000000000000002,Y,0.89312064042875594,0.28613728040696068,0.26306682088232819
0.50775751933945978,0,N,0.30657275901864822,0.19902431769104489,0
0.31389745960777288,0,Y,0.91085239818021524,0.20705667420626739,0.13153341044116409
0.030054308957971301,0,N,2.1553418172102528,0.073081511250288597,0
0.0040928183043972,0,N,0.9934450592856956,0.062182331259518699,0.52613364176465638
0.12248688961886919,0.40000000000000002,N,0.083059286309466296,0.1227165578714538,0.26306682088232819
0.9827817941035244,0,N,0.80539510207943177,0.60930474318013672,0.39460023132349231
0.26975393369890688,0,Y,0.21418096862946651,0.24079952289179071,0
0.41002597922233852,0.80000000000000004,Y,0.4222958096071181,0.35327369624365279,0.52613364176465638
0.88367667935848815,0.40000000000000002,N,0.53008623172782998,0.7330604937951658,0.39460023132349231
0.093018597827209296,0.40000000000000002,N,0.6784730465953035,0.022590601804711799,0
0.074628821036770002,0,N,2.0858146618163733,0.2113943883798732,0
0.27905579348162779,0,Y,0.7909297207558732,0.37256637329829878,0.39460023132349231
0.86224209379917161,0,N,0.0401297675427758,0.28613429700713711,0.39460023132349231
0.52617520170924725,0.80000000000000004,N,0.96731404786249242,0.38258209401628829,0.65766705220582056
0.44028802971545727,0,N,1.9406942233768001,0.19853474177998279,0.39460023132349231
0.074290853464664394,0,Y,0.33597014686975141,0.100957653352582,0
0.3117983399168055,0.40000000000000002,N,1.0275086991766569,0.18288845057480579,0.13153341044116409
0.40308059058457357,0,N,1.3634788460464078,0.21947082462749021,0.39460023132349231
0.077515498189341003,0,N,0.051328772438434297,0.1040603891691851,0.13153341044116409
0.073156026571172497,0,Y,0.49835571785679789,0.049753562179160001,0.13153341044116409
0.46819360906362001,0,N,1.4059417396091127,0.3427323750617306,0.9207338730881488
0.1240247971029457,0,N,0.37143366237266962,0.2482580224509327,0
0.2325464945680232,0.40000000000000002,N,1.1646965091484716,0.2109655246552225,0.13153341044116409
0.1204900903855117,0,Y,1.1968936482234891,0.1454103107250686,0
0.39687935072942632,0,N,0.94771578929509059,0.3427323750617306,0.39460023132349231
0.86735501605974064,0,Y,1.0886366008987916,0.43184056099471241,0.13153341044116409
0.1877053291754531,1.2,Y,0.78719671912398692,0.21008445210230109,0
0.30695827220986299,0,N,1.6238557098704651,0.31232176022424513,0.13153341044116409
0.13332665688566661,0,Y,0.065794153761992893,0.1094470667207886,0.39460023132349231
0.2480495942058914,0,N,1.7493778897426364,0.16745763542189249,0
0.32172032368504122,0.40000000000000002,N,0.50535509591658434,0.2420639623220521,0.39460023132349231
0.37728343278716081,0,N,1.1394987481332404,0.39249548412032631,0.26306682088232819
0.27929454121605102,0,N,1.1236334911977242,0.37285352553132578,0
0.23295267577853529,0,N,0.91738515103601559,0.1810555243081467,0.13153341044116409
0.1271254170305193,0,N,0.92251802827985918,0.12643588784661119,0.39460023132349231
0.27905579348162779,0,Y,0.4666252039857659,0.2482580224509327,0.52613364176465638
0.37575172654293948,0,Y,0.68453917424711852,0.1083581257851539,0.39460023132349231
0.0251832350517531,0.40000000000000002,N,0.85625724931388048,0.044695729873118997,0.39460023132349231
0.24323743207829709,0,Y,1.5781264398798602,0.16456373759294529,0.26306682088232819
1.519303764511085,0,Y,0.5996133871217092,0.62118300040803509,0.13153341044116409
0.7241807902841001,0,N,1.5519954284566571,0.51866771400752187,0
0.062012398551472801,1.2,N,0.24171185566462669,0.10619135707822749,0
0.59340904421875407,0,N,1.5174651633617109,0.37514701414576201,0.39460023132349231
0.27905579348162779,0,N,0.072326906617793701,0.18610388431974759,0
0.40616880803243688,0,N,1.8702338175749496,0.20996511610935481,0.39460023132349231
0.16654049754983549,0,N,1.8347703020720316,0.2062483220240475,0.26306682088232819
0.093018597827209296,0,Y,1.2673540540253398,0.074226390932616904,0.26306682088232819
0.1240247971029457,0.80000000000000004,N,0.46102570153793659,0.1239497461885624,0
0.89917977899635648,0,Y,0.13998756119572969,0.4968747241456648,0
0.27905579348162779,0.80000000000000004,N,0.56694962284270545,0.29798137770687833,0.39460023132349231
0.074290853464664394,0.40000000000000002,N,0.41949605838320347,0.084071610350684403,0
0.52617520170924725,0,N,1.9056973330778679,0.66978758073010924,0.26306682088232819
0.36040055728152232,0,Y,1.4670696413312478,0.4704032412653445,0.26306682088232819
0.039191835884530797,0,N,0.98597905602192359,0.041856502845940398,0
0.2821564134092015,0,N,1.3994089867533119,0.10725687832524659,0.65766705220582056
0.56332062844157949,0.80000000000000004,N,0.63134390099274129,0.37586385053839111,0.26306682088232819
0.40261549759543752,0,N,1.6345880895621381,0.29766170641577339,0.13153341044116409
0.59221840616656585,0,N,1.7335126328071202,0.74922060103497212,0.13153341044116409
0.1240247971029457,0,Y,0.1763843271066195,0.065066831379021306,0.13153341044116409
1.1831345519635508,0.40000000000000002,Y,0.45495957388612168,0.72979120968340705,0
0.50540104819450371,0,N,1.8086392906488284,0.42974822811338631,0.39460023132349231
0.48320060951307647,0,Y,0.58934763263402234,0.18993643431821269,0
0.2325464945680232,0.40000000000000002,Y,1.1119678610980801,0.1149091497029351,0.13153341044116409
0.1323096535494224,0,N,0.90431964532441445,0.1305927334059078,0.26306682088232819
0.17467652423978869,0,N,1.2850858117767991,0.23524473076012409,0.13153341044116409
0.5612122068908294,0,N,0.86092350135373819,0.47449922546823858,0.26306682088232819
0.1240247971029457,0,N,1.8394365541118891,0.082513604377775204,0.39460023132349231
0.32816961313439441,0,Y,1.7918407833053407,0.24649639944005899,0.26306682088232819
0.52617520170924725,0.40000000000000002,N,0.63741002864455609,0.44640551893380509,0.26306682088232819
0.52571630995996632,0.80000000000000004,N,0.64720915792825706,0.53531680047842556,0.13153341044116409
0.43408678986031002,0.40000000000000002,N,0.62434452293295495,0.22339638211545779,0.26306682088232819
0.4000047756164205,0.80000000000000004,N,0.83525911513452078,0.2069996166846399,0.39460023132349231
0.52617520170924725,0,N,1.8944983281822096,0.89316964252641362,0.78920046264698474
0.0714568868508621,0,N,1.7391121352549497,0.079149000641650605,0.52613364176465638
0.475430455974577,0,Y,1.0522398349879021,0.30419803708942322,0.39460023132349231
0.1444888886249317,0,N,0.3630344087009259,0.1685018253601723,0
0.27905579348162779,0.80000000000000004,Y,1.2309572881144506,0.1239497461885624,0.52613364176465638
0.15472093438592471,0,N,0.85859037533380911,0.34330608284781983,0
0.42588254953195009,0,Y,1.5818594415117462,0.54916126736010507,0.13153341044116409
0.27905579348162779,0,N,0.52402010407601496,0.17722468976458011,0.39460023132349231
0.0918403622547313,0,N,0.53101948213580163,0.16381124957242349,0
0.38204598499591391,0,N,0.9444494128671902,0.19835969079532981,0
0.61826361355818449,0,Y,1.1833615173079022,0.34671021663160778,1.4468675148528052
0.56741344674597671,0.40000000000000002,N,0.2477779833164416,0.57543756130696244,0.13153341044116409
0.52617520170924725,0,N,1.2118256547510338,0.3618825947747969,0.13153341044116409
0.3117983399168055,0,Y,0.11245667416056949,0.16456373759294529,0.13153341044116409
0.65931892201918696,0,Y,1.3858768558377246,0.4740893063324681,0.13153341044116409
0.48320060951307647,0,Y,0.54735136427530318,0.2470249087188198,0.13153341044116409
0.33323602609604969,0,N,2.0461515194775841,0.23644674254907541,0.13153341044116409
0.71314258334193781,0,Y,1.4507377591917461,0.51108137576593615,0
0.58911778623899214,0.40000000000000002,Y,1.0130433178530978,0.4968747241456648,0.52613364176465638
0.074290853464664394,0.40000000000000002,Y,0.4512265722542354,0.14035844521867491,0
1.1831345519635508,0,N,0.4689583300056947,0.48640791337433842,0.39460023132349231
0.093018597827209296,0,N,0.074660032637722598,0.14881138652403739,0.13153341044116409
0.26943146922643929,1.2,Y,0.55761711876299036,0.24054101129707089,0.26306682088232819
0.58142824881860955,0,N,1.164229883944486,0.44606653012884201,0.39460023132349231
0.77515498189341081,0.40000000000000002,Y,0.4260288112390041,0.29798137770687833,0.26306682088232819
0.20588116319088989,0.40000000000000002,N,0.65794153761992991,0.18958454230901239,0
0.71190233537090841,0,N,0.56648299763871979,0.44640551893380509,0.26306682088232819
0.62259207897707713,0,N,1.0499067089679732,0.31408576995497778,0.65766705220582056
0.67506697063133358,0.40000000000000002,Y,1.22769091168655,0.30845042602807249,0.52613364176465638
0.58142824881860955,0,N,0.85019112166206545,0.36794210357163071,0.39460023132349231
0.34044806804758598,0.80000000000000004,N,1.0578393374357311,0.2255422670236186,0
0.80493953691768305,0,N,1.9710248616358752,0.20072701855540151,0.26306682088232819
0.17313861675571221,0,Y,1.5888588195715323,0.32701977779547281,0
0.18541707166890381,0.80000000000000004,N,0.54641811386733186,0.1731758432788999,0.13153341044116409
0.15503099637868209,0,Y,0.23564572801281169,0.068489089316738,0.13153341044116409
0.1444888886249317,0,Y,0.3518354038052674,0.076396143039366898,0.13153341044116409
0.70327641073239855,0,N,1.4423385055200022,0.4412181324904218,0.52613364176465638
0.19355309835885701,0,N,0.73820107270548163,0.26972858137684819,0
0.52617520170924725,0.40000000000000002,Y,1.0769709707991475,0.38258209401628829,0
0.093018597827209296,0,N,0.23611235321679741,0.099088031268091806,0.26306682088232819
0.55804027270492151,0,Y,1.1436983749691121,0.88523096476565388,0.39460023132349231
0.72532181841744714,0,N,1.714380999443704,0.47466405830849567,0.78920046264698474
0.1387403392792102,0,N,0.49042308938903978,0.081305998714154504,0.13153341044116409
0.1271254170305193,0,N,1.1259666172176532,0.253230380352026,0
0.0918403622547313,0,N,2.14787581394648,0.098143337713930898,0
1.0219643281282726,0,Y,1.6056573269150201,0.79117466105514611,0.39460023132349231
0.87800564551095595,1.2,Y,1.0004444373454819,0.59061866589463585,0.39460023132349231
0.12533945995223689,1.2,N,0.6784730465953035,0.31304754681634528,0.13153341044116409
0.57259458264495222,0.40000000000000002,N,0.89825351767259931,0.32229772713958438,0
0.13952789674081389,0,N,2.0386855162138118,0.40985887109400898,0
0.4709221545998849,0.80000000000000004,N,0.72046931495402244,0.26794846128706779,0.65766705220582056
0.13347548664219019,0,Y,1.0947027285506068,0.0938458248529489,0
0.58911778623899214,0,Y,0.97897967796213659,0.2127413934002543,0.52613364176465638
0.87445543569388418,0,Y,1.2743534320851266,0.33473000171473588,0.26306682088232819
0.43408678986031002,0.40000000000000002,N,0.38543241849224252,0.48606526990459142,0
0.29455889311949601,0,N,1.9028975818539533,0.19542700876867511,0
0.95902174359852776,0.40000000000000002,N,0.84739137043815072,0.79347434022421637,0
0.071314258334193706,0,N,0.1418540620116728,0.081684890491758894,0.65766705220582056
0.4928094306686272,1.2,Y,0.82172698421893364,0.2287380103297241,0.26306682088232819
0.27905579348162779,0,N,1.6201227082385792,0.37256637329829878,0
0.27429324127287469,0,N,1.4614701388834186,0.29339887557774141,0.65766705220582056
0.30695827220986299,0,N,1.6779842335328139,0.31232176022424513,0.13153341044116409
0.71004196341436421,0,N,1.7983735361611417,0.77467675837030625,0
0.27905579348162779,0.80000000000000004,Y,0.33970314850163758,0.18610388431974759,0.13153341044116409
0.69576050802796008,0,Y,1.2939516906525286,0.29101267781378509,0.26306682088232819
0.58911778623899214,0,N,1.0811705976350197,0.4258413914593121,0
0.4960991884117828,0,Y,1.125499992013667,0.180776352669648,0
0.078036402337173405,0,N,1.5589948065164436,0.16357921565113859,0
0.43408678986031002,0,N,1.3728113501261232,0.37256637329829878,0
0.19807690283318699,0,N,1.8301040500321737,0.36701225243159241,0
0.58911778623899214,1.2,N,0.28790775085921749,0.5963213600725602,0.13153341044116409
0.3445408863519831,0,Y,0.3196382647302497,0.18031608866185339,0.26306682088232819
0.41002597922233852,0,Y,0.43862769174661981,0.1511981063829628,0.39460023132349231
0.58911778623899214,0,N,0.45215982266220722,0.2127413934002543,0
0.77904936052244322,0,Y,1.8142387930966579,0.2288858377909864,0.39460023132349231
0.2318767606636673,0,N,1.4143409932808564,0.25258596599011612,0
0.13547538649547511,0.80000000000000004,N,0.83245936391060615,0.26662084836554051,0
0.1240247971029457,0,N,2.0643499024330283,0.14881138652403739,0
0.52943395325312703,0.40000000000000002,N,0.54128523662348849,0.22432996250527559,0
0.34416261072081922,0.40000000000000002,N,1.1651631343524571,0.30046259675521808,0.26306682088232819
0.43718740978788367,0.40000000000000002,N,0.33503689646177981,0.7504637091564943,0.13153341044116409
0.039191835884530797,0,Y,1.7601102694343089,0.093452761926182099,0
0.13952789674081389,0,Y,1.6289885871143086,0.16372838564232139,0
0.24254909445437581,0,N,1.3872767314496821,0.26285482818314287,0.13153341044116409
0.45188434824458268,0,Y,1.5337970455012122,0.33152329441427841,0.39460023132349231
0.2821564134092015,0,N,0.13345480833992901,0.30096477753053508,0
0.74414878261767436,0,N,1.5655275593722444,0.53239135319634334,0.26306682088232819
0.19749708690673071,0,N,0.50955472275245617,0.091251684121283705,0.39460023132349231
0.81546304095186806,0,Y,1.2267576612785784,0.31289837682516242,0.13153341044116409
0.71190233537090841,1.2,Y,0.69480492873480537,0.22302345713750071,0.39460023132349231
0.310303841111715,0,N,1.9798907405116049,0.32804808112969169,0.13153341044116409
0.3445408863519831,0.80000000000000004,N,0.67194029373950281,0.32227475496094221,0.26306682088232819
0.1240247971029457,0.80000000000000004,N,0.41249668032341702,0.061795533472381599,0.39460023132349231
0.1240247971029457,0,Y,0.46615857878178008,0.061795533472381599,0.26306682088232819
0.85670128598859752,0,N,1.0186428203009268,0.32815958569810089,0
0.36807459160226708,0,N,1.4600702632714615,0.31963586323192222,0.65766705220582056
0.15503099637868209,0,N,1.7843747800415688,0.22339638211545779,0.26306682088232819
1.7034805882089594,0.80000000000000004,N,0.59168075865395109,0.83409832601800871,0.13153341044116409
0.2325464945680232,0,Y,1.0989023553864783,0.12643588784661119,0
0.062012398551472801,0.80000000000000004,Y,0.48155721051331041,0.074226390932616904,0.52613364176465638
0.328070393296712,0,N,0.52961960652384432,0.2464282287540884,0
0.73645924519729167,0.40000000000000002,N,0.95284866653893396,0.46117334806090621,0.26306682088232819
0.83468688450282469,0,N,1.335014708603276,0.59461657082832708,0.39460023132349231
0.37016440943345169,0,N,1.6896498636324584,0.45917021883430748,0.13153341044116409
0.90228039892392997,0,Y,0.93371703317551735,0.4486430688015477,0.52613364176465638
0.18603719565441859,0,Y,1.1338992456854109,0.074226390932616904,0.26306682088232819
0.46304037874399268,0.80000000000000004,Y,0.78299709228811509,0.14819419568551831,0
0.040828963206289703,0,N,2.0335526389699679,0.078186182933560999,0
0.18541707166890381,0,N,0.33037064442192221,0.5202446645693114,0.13153341044116409
0.88865937558209906,0,Y,1.0373078284603574,0.36834859179760399,0.13153341044116409
0.28445397277553358,0,N,1.7960404101412131,0.3790589971645319,1.0522672835293128
0.37056128878418121,0,Y,0.92905078113565964,0.32162981850406319,0.13153341044116409
0.1444888886249317,0.40000000000000002,Y,1.0088436910172256,0.12025599886689289,0.13153341044116409
0.52617520170924725,0,Y,0.29910675575487589,0.44640551893380509,0.26306682088232819
0.54459288407903461,0.80000000000000004,N,0.42462893562704701,0.34579035988097878,0.13153341044116409
1.0072301822324428,0,Y,0.90525289573238565,0.31182435288864591,0.39460023132349231
0.077515498189341003,0,Y,0.29444050371501818,0.1040603891691851,0.13153341044116409
0.1085216974650775,0,Y,1.4278731241964435,0.19707227918642631,0.26306682088232819
0.15472093438592471,0.80000000000000004,N,0.79046309555188721,0.2123862196512479,0
0.4147389215122505,0,Y,1.6005244496711768,0.66978758073010924,0.39460023132349231
0.13243367834652539,0.80000000000000004,N,0.75453295484498351,0.1705772274474992,0.13153341044116409
0.13952789674081389,0,N,0.24871123372441309,0.1105109470979046,0.39460023132349231
0.4718399380984466,0,N,1.335014708603276,0.37763815299851528,0.26306682088232819
0.52617520170924725,0,N,1.7036486197520311,0.53575834365232677,0.39460023132349231
0.48933983696967231,0,N,1.9635588583721024,0.24997847454423999,0
0.093018597827209296,0,N,1.4787352714308919,0.2482580224509327,0
0.93837161488088738,0,N,1.6947827408763017,0.66587716399624675,0
0.28835765326434881,0.80000000000000004,Y,0.62527777334092616,0.1916977589891041,0.78920046264698474
0.1240247971029457,0,Y,0.97664655194220795,0.18610388431974759,0.26306682088232819
0.53950786739781387,0,Y,0.82126035901494798,0.228368740016551,0
0.093018597827209296,0,N,0.0116656300996441,0.1189773882874692,0
0.41996036547028448,0,N,1.4941339031624223,0.38706785940614308,0.26306682088232819
0.031006199275736401,0,N,1.9910897454072631,0.099088031268091806,0
0.4709221545998849,0,N,1.2416896678061229,0.34460766560588568,0
0.17467652423978869,0,N,0.42882856246291889,0.1265047297975421,0.26306682088232819
0.52617520170924725,0,Y,1.4460715071518886,0.44640551893380509,0.26306682088232819
0.1690582009310253,0,N,1.6485868456817103,0.1020354811238736,0.13153341044116409
0.71190233537090841,0.40000000000000002,N,1.2370234157662654,0.44640551893380509,0.13153341044116409
0.3445408863519831,0,N,1.0331082016244857,0.30076585934729277,0
0.52617520170924725,0,N,1.7577771434143801,0.53575834365232677,0
0.21396757996200191,0,N,1.6345880895621381,0.39249548412032631,0
0.71190233537090841,0.40000000000000002,N,1.0933028529386497,0.99245055059310483,0
0.36408719437540749,0.40000000000000002,N,0.34996890298932432,0.37979813447084287,0.13153341044116409
0.20154029529228679,0.80000000000000004,Y,0.90245314450847081,0.1115188887283271,0.26306682088232819
0.32703478624090238,0,N,1.7549773921904652,0.344146506578144,0.13153341044116409
0.27905579348162779,0,N,0.46522532837380848,0.18610388431974759,0.52613364176465638
0.2480495942058914,0,N,0.85159099727402265,0.26814737947031009,0.39460023132349231
0.074762147693655606,0,Y,1.5636610585563011,0.084449532523346096,0
0.18603719565441859,0.40000000000000002,Y,1.5505955528447,0.217180990677838,0
0.27905579348162779,0,N,1.4843347738787211,0.37256637329829878,0
1.0342427830414644,0.40000000000000002,Y,0.1007910440609254,0.42345176278555863,0.26306682088232819
0.41996036547028448,0,N,1.7951071597332413,0.1352406465761784,0.13153341044116409
0.084820558738704505,0,N,1.4899342763265504,0.092514631851633194,0.13153341044116409
0.21685425711457301,0.80000000000000004,N,0.4666252039857659,0.1188863945928476,0.26306682088232819
0.37728343278716081,0,N,1.3266154549315323,0.32701977779547281,0.26306682088232819
0.042484694247614002,0,N,0.83339261431857781,0.070353937961510293,0
0.068213638406620106,0.40000000000000002,N,0.53055285693181564,0.0791987488337101,0.39460023132349231
0.2318767606636673,0.40000000000000002,N,1.2906853142246284,0.1577317519967712,0.39460023132349231
0.70074010363164341,0,N,1.3984757363453402,0.70372375372420548,0
0.43408678986031002,0,Y,0.37143366237266962,0.20305504002279651,0.13153341044116409
0.3117983399168055,0,N,1.8497023085995761,0.41194725097056878,0.13153341044116409
0.43408678986031002,0,N,1.3392143354391484,0.55902886227685,0
0.059891574521012403,0,Y,1.1026353570183649,0.087102744571519702,0
0.54474791507541331,0,Y,1.9822238665315333,0.46129768124855719,0.26306682088232819
0.13751869502774619,0,Y,0.3196382647302497,0.13476949315902739,0.13153341044116409
1.2261091441597212,0,N,1.3378144598271908,0.43163768980670381,0
0.1444888886249317,0,Y,1.3751444761460521,0.069999882987437895,0.26306682088232819
0.27905579348162779,0.40000000000000002,Y,0.42742868685096153,0.16538581341435399,0.52613364176465638
0.1085216974650775,0,N,1.281819435348899,0.19707227918642631,0.26306682088232819
0.1085216974650775,0,N,1.2150920311789344,0.22339638211545779,0.26306682088232819
0.4928094306686272,0,N,1.5599280569244152,0.35965041502673689,0.39460023132349231
0.1240247971029457,0,N,0.48155721051331041,0.092872639830472004,0.13153341044116409
0.4526905094257519,0,N,1.4246067477685431,0.58140436095427617,0
0.3242070208669553,0,N,0.6864056750630616,0.18952151798773759,0.13153341044116409
0.13425684286393871,0,N,2.1623411952700389,0.198410408592332,0
0.26045207391618602,0,N,0.494156091020926,0.25003389119596447,0
0.40928183043972088,0.80000000000000004,N,1.0177095698929557,0.70571271180164197,0
0.34416261072081922,0.40000000000000002,N,1.5099991600979383,0.30046259675521808,0
0.098860165770757999,0,N,1.9131633363416405,0.088896215375510998,0
0.89917977899635648,0,Y,0.46522532837380848,0.4968747241456648,0.13153341044116409
0.64988373557958046,0,Y,1.1068349838542366,0.27262001790094081,0.26306682088232819
0.90228039892392997,0.40000000000000002,Y,1.1199004895658382,0.4486430688015477,0
0.27905579348162779,0,N,1.9336948453170135,0.2127413934002543,0.13153341044116409
0.15935636117764729,0.80000000000000004,N,0.77926409065622915,0.18280722751460679,0
0.3036127033080111,0,N,0.50162209428469828,0.16062564982571831,0
0.3445408863519831,0.40000000000000002,Y,0.13765443517580089,0.2577480681199939,0.13153341044116409
0.85164727550665242,0.40000000000000002,N,0.90805264695630039,0.23555373639685931,0.52613364176465638
0.13425684286393871,0,N,2.1637410708819962,0.198410408592332,0
0.58911778623899214,0,Y,0.55341749192711831,0.29798137770687833,0.26306682088232819
0.54459288407903461,0.40000000000000002,N,0.76433208412868459,0.30732933895933789,0.13153341044116409
0.64436463210849926,0,N,1.378877477777938,0.36066260800190808,0.26306682088232819
0.62259207897707713,0,N,0.77319796300441412,0.25738267622659161,0
0.1444888886249317,0,N,1.2034264010792901,0.2107169328649163,0.13153341044116409
0.66278851571814201,0,N,1.0839703488589341,0.83409832601800871,0.26306682088232819
0.66278851571814201,0.40000000000000002,Y,0.81519423136313296,0.41686986067960258,0.26306682088232819
0.48059608877391458,0.40000000000000002,N,0.053661898458363,0.40985887109400898,0
0.0040928183043972,0,N,2.1012132935479038,0.076396143039366898,0.13153341044116409
0.51160228804965113,0,Y,1.0088436910172256,0.43472051142948398,0.26306682088232819
0.85670128598859752,0.80000000000000004,Y,0.84552486962220763,0.85378876485414346,0.26306682088232819
0.74811757612496854,0,N,1.6285219619103228,0.4681843376464998,0.13153341044116409
0.064406077135559694,0.40000000000000002,N,2.078348658552601,0.10893325068615931,0.13153341044116409
0.14262851666838749,0.40000000000000002,N,1.5879255691635614,0.13886674530684651,0
0.093018597827209296,0,N,1.4526042600076892,0.0327902491218297,0.39460023132349231
0.20154029529228679,0,N,0.94631591368313317,0.55902886227685,0
0.2821564134092015,0,Y,1.1749622636361583,0.15030308643586579,0.26306682088232819
0.63823160589175865,0,Y,1.8016399125890417,0.32160990431024028,0.52613364176465638
0.43408678986031002,0.40000000000000002,Y,0.4512265722542354,0.27933512880902323,0.39460023132349231
0.34017521349395952,0,N,1.0555062114158025,0.49568136421620212,0
0.79140223031389656,0,Y,1.094236103346621,0.61785777754958282,0.13153341044116409
0.1444888886249317,0,Y,1.2687539296372974,0.052410279722126397,1.0522672835293128
0.64802956486289143,0.40000000000000002,N,1.3140165744239165,0.70982025667885273,0
0.58911778623899214,0.40000000000000002,N,0.79512934759174503,0.82836356029197977,0
0.15503099637868209,0,N,1.0695049675353754,0.22339638211545779,0.52613364176465638
0.18293657572684491,0.40000000000000002,N,0.51562085040427119,0.1711868852014635,0.13153341044116409
0.48933983696967231,0,N,1.9238957160333128,0.24997847454423999,0.52613364176465638
1.519303764511085,0,N,0.83852549156242118,1.0075467774557954,0.26306682088232819
0.1023700675287714,0,N,0.49788909265281212,0.091308517887924295,0.39460023132349231
0.31006199275736429,0.40000000000000002,Y,1.1296996188495392,0.32781537594344651,0.52613364176465638
0.55766509769368511,0.40000000000000002,Y,1.3424807118670483,0.40422449677204642,0
0.4709221545998849,0.40000000000000002,N,1.1301662440535247,0.67040909749837263,0.13153341044116409
0.28820882350782517,0,N,1.7904409076933836,0.38357511864759247,0.26306682088232819
0.83190562842779114,0.80000000000000004,Y,0.735867946685553,0.25910678298468282,0.26306682088232819
0.098326859143215303,0.80000000000000004,Y,0.54968449029523225,0.061863182063383003,0
0.23361310782310851,0,N,0.33130389482989381,0.1153756042653639,0
0.17329364775209091,0.80000000000000004,N,0.58934763263402234,0.32726844417077461,0.13153341044116409
0.1444888886249317,0,N,2.1152120496674769,0.1685018253601723,0
0.34017521349395952,0,Y,1.8268376736042733,0.44607734495320278,0.13153341044116409
0.30075703235471579,0.80000000000000004,N,0.7909297207558732,0.17698631611867,0.26306682088232819
0.68213638406620136,0.40000000000000002,N,0.55388411713110397,0.48977139833552907,0.52613364176465638
1.1831345519635508,0,Y,1.1189672391578664,0.32415243222495621,0.13153341044116409
0.74414878261767436,0,N,2.002755375506907,0.1959177034546711,0.26306682088232819
0.093018597827209296,0,Y,0.41249668032341702,0.1101376491949696,0.13153341044116409
0.27905579348162779,0.80000000000000004,N,1.0844369740629201,0.25683104559919739,0.26306682088232819
0.54459288407903461,0,N,1.9719581120438463,0.27656056697302239,0.13153341044116409
0.15503099637868209,0.40000000000000002,N,1.4031419883851981,0.063571402217413295,0.65766705220582056
0.20154029529228679,0.80000000000000004,N,0.67054041812754539,0.13948826207510981,0
0.48096196192536828,0,N,2.00462187632285,0.41015221388167,0.13153341044116409
0.52617520170924725,0,N,1.7204471270955186,0.53575834365232677,0.78920046264698474
0.34416261072081922,0,N,1.6303884627262659,0.51533480889452365,0
0.045014800108514101,0,N,1.3532130915587208,0.091075141436718798,0.26306682088232819
0.0146225235784373,0,N,1.5015999064261949,0.060618805996935698,0
0.060998495835156201,0,Y,2.1982713359769432,0.12982734218114869,0
0.071835162482026094,0,N,2.0447516438656259,0.12333315203000809,0.13153341044116409
0.3445408863519831,0,N,1.4302062502163724,0.22548476199201761,0.65766705220582056
0.1240247971029457,0.40000000000000002,Y,0.41529643154733148,0.14881138652403739,0.39460023132349231
0.39785294538668442,0,N,1.223491284850678,0.21456119270768931,0.26306682088232819
0.1396488209179893,0,Y,0.2482446085204274,0.068059479742131501,0.52613364176465638
0.43408678986031002,0.80000000000000004,N,0.47269133163758081,0.41400251510908598,0.13153341044116409
0.37170231691752831,0.80000000000000004,N,0.43396143970676221,0.4839963567118809,0.26306682088232819
0.14299438981984119,0,N,0.72466894178989438,0.083352610993183099,0.13153341044116409
0.2108421550750077,0,Y,1.9206293396054119,0.2905228781477362,0
0.74414878261767436,0,N,1.7139143742397178,0.69024318703601673,0.13153341044116409
0.13952789674081389,0,N,1.7246467539313908,0.068010999494997004,0.39460023132349231
0.1240247971029457,0,Y,0.87398900706533933,0.14881138652403739,0.9207338730881488
0.1894695819142426,0.40000000000000002,Y,1.0961026041625641,0.1229789478859445,0.39460023132349231
0.48933983696967231,0,N,0.96124792021067762,0.2082556280103994,0.13153341044116409
0.1240247971029457,0,N,1.034508077236443,0.074226390932616904,0.39460023132349231
0.3445408863519831,0.40000000000000002,N,0.70973693526234993,0.30076585934729277,0.13153341044116409
1.0342427830414644,0,Y,1.5099991600979383,0.73176771206657976,0
0.50775751933945978,0,N,0.77039821178049939,0.36992390148949039,0.52613364176465638
0.29455889311949601,0,N,1.5818594415117462,0.39121262219615388,0.13153341044116409
0.3445408863519831,0,N,0.15678606853921731,0.2577480681199939,0.26306682088232819
0.59221840616656585,0.40000000000000002,N,0.96451429663857824,0.42797235936835459,0
0.2821564134092015,0,N,1.765709771882138,0.44276398110904941,0
0.43408678986031002,0.80000000000000004,Y,0.82032710860697633,0.22339638211545779,0.26306682088232819
0.031006199275736401,0,N,2.0685495292688998,0.070674728027548997,0
0.31936075192015762,0.40000000000000002,Y,0.58421475539017909,0.28057570104069529,0
0.71190233537090841,0,N,1.9705582364318888,0.59532691832633977,0.13153341044116409
0.26007379828502197,0,N,1.5295974186653407,0.1163395407483874,0.26306682088232819
0.50775751933945978,0.80000000000000004,Y,0.83712561595046386,0.25883917202050077,0.52613364176465638
0.0049113819652766002,0,N,1.4852680242866927,0.034201098898436998,0.26306682088232819
0.27152748829747908,0,N,2.014887630810537,0.25058649142830131,0.26306682088232819
0.1240247971029457,0.40000000000000002,N,0.23377922719686861,0.14881138652403739,0.13153341044116409
0.29535885306081,0.40000000000000002,Y,0.95191541613096242,0.2613303108732542,0.26306682088232819
0.60789514052037819,0.40000000000000002,N,0.37143366237266962,0.38385854163083988,0
0.35530623874051881,0,Y,1.9150298371575831,0.30939787922707029,0.39460023132349231
0.15503099637868209,0,N,1.1534975042528133,0.16538581341435399,0.26306682088232819
0.58911778623899214,0.40000000000000002,N,0.98831218204185201,0.4968747241456648,0
1.153067840525869,0.80000000000000004,N,0.41249668032341702,0.47435378472683531,0.13153341044116409
0.13937286574443519,0,N,2.138543309866765,0.27287107099610147,0
0.27905579348162779,0,N,0.42976181287089038,0.20682195522514121,0.13153341044116409
0.2480495942058914,0.40000000000000002,Y,0.78206384188014344,0.14881138652403739,0.65766705220582056
0.39785294538668442,0,Y,0.61034576681338171,0.1715771884833934,0.26306682088232819
0.52988974438248038,0.40000000000000002,N,0.48948983898106829,0.67425522196603538,0
0.43592235685743358,0,N,0.95798154378277722,0.22427946846326019,0
0.17983595579927131,0,Y,0.3788996656364419,0.2814069508165617,0
0.44074072022488298,0,N,1.6182562074226361,0.41993060514368769,0.39460023132349231
0.33176013101052459,0,N,1.2323571637264077,0.2489641186041967,0.13153341044116409
0.21704339493015501,0,N,1.9285619680731705,0.33113023148751158,0.65766705220582056
0.16052219427041509,0,N,1.186161268531817,0.27065254030223468,0.65766705220582056
0.1444888886249317,0,N,1.2244245352586498,0.12025599886689289,0.78920046264698474
0.74724940254524796,0,Y,1.1800951408800018,0.18684973427566179,0.39460023132349231
0.83765107715358511,0,N,0.73306819546163826,0.69615583797653102,0
0.26943146922643929,0,N,1.9136299615456256,0.28872090465424749,0
0.32951838280288892,0,Y,1.9010310810380104,0.2164506544010068,0.39460023132349231
0.52710538768751936,0,Y,1.3462137134989345,0.22339638211545779,0.13153341044116409
0.37728343278716081,0,N,0.72420231658590872,0.24517520082815261,0
0.2480495942058914,0,N,1.0867701000828487,0.1216895970671556,0.26306682088232819
0.48933983696967231,0,Y,1.7531108913745226,0.39079308159595211,0.52613364176465638
0.48933983696967231,0.40000000000000002,N,0.65794153761992991,0.50031555374728376,0
0.48933983696967231,0,N,1.2547551735177245,0.52117697701420407,0.13153341044116409
0.72841933772509326,0,Y,1.777375401981782,0.52158078018033605,0.13153341044116409
0.55380172526392835,0,Y,1.1296996188495392,0.26015022707300678,0.52613364176465638
0.065971890198984404,0.40000000000000002,N,0.36676741033281191,0.15516103095372169,0.13153341044116409
0.34044806804758598,0,Y,0.47875745928939561,0.34330608284781983,0.65766705220582056
0.32246137184773133,0.80000000000000004,N,0.3163718883023493,0.33974599183825011,0.13153341044116409
0.184499288170342,0,Y,0.95891479419074876,0.25883917202050077,0.13153341044116409
0.33670561979500457,0.80000000000000004,Y,1.5907253203874756,0.14706236837741851,0.39460023132349231
0.50668470484451933,0,Y,0.4862234625531679,0.1844140120746327,0.39460023132349231
0.23574633433327921,0,N,1.9430273493967289,0.33736225537914832,0.65766705220582056
0.077515498189341003,0,Y,0.58374813018619309,0.13016513762618229,0.26306682088232819
0.093018597827209296,0,N,1.1227002407897528,0.2482580224509327,0.26306682088232819
0.1506808266202963,0,N,0.78299709228811509,0.24244456955455509,0
0.41002597922233852,0,Y,0.78859659473594435,0.35327369624365279,0.13153341044116409
0.15472093438592471,0,Y,0.95331529174291962,0.1651096251756789,0
0.43408678986031002,0,N,1.0611057138636315,0.48606526990459142,0.13153341044116409
0.051625321794101099,0,N,2.2225358465842029,0.079149000641650605,0
0.54459288407903461,0,N,1.6975824921002165,0.39524021195809061,0.13153341044116409
0.27905579348162779,0,N,1.416674119300785,0.29798137770687833,0.26306682088232819
0.71190233537090841,0,N,0.68127279781921823,0.54117366184223747,0.26306682088232819
0.18541707166890381,0.40000000000000002,N,0.4087636786915308,0.1731758432788999,0.52613364176465638
0.18603719565441859,0,N,1.6009910748751628,0.34770473296282378,0
0.15503099637868209,0,Y,1.8422363053358035,0.1115188887283271,0.39460023132349231
0.2821564134092015,0,Y,1.5585281813124581,0.47045918001203813,0.39460023132349231
0.74414878261767436,0.80000000000000004,N,0.65747491241594391,0.46579761778757428,0.26306682088232819
0.83419078531441282,0.80000000000000004,N,0.47549108286149538,1.1558745548684175,0.13153341044116409
0.23760670628982339,0,Y,0.39756467379587251,0.18425417642908029,0.26306682088232819
0.68213638406620136,0,N,1.6560528489454831,0.42850511999186408,0.26306682088232819
0.51620050740224277,0,Y,0.40036442501978697,0.346035669931479,0.13153341044116409
0.48902977497691491,0.40000000000000002,N,0.66540754088370202,0.62511116837084835,0.13153341044116409
0.15503099637868209,0,N,0.6784730465953035,0.14881138652403739,0.26306682088232819
0.062012398551472801,0,N,1.9658919843920319,0.14881138652403739,0
0.50775751933945978,0,N,2.0228202592782951,0.25883917202050077,0.13153341044116409
0.29535885306081,0,N,0.99391168448968115,0.17410069722423349,0.26306682088232819
0.93126809462681603,0,Y,1.9747578632677607,0.42050282122986499,0.52613364176465638
0.2821564134092015,0,Y,0.3551017802331678,0.15030308643586579,0.65766705220582056
0.32816961313439441,0,Y,0.097058042429039204,0.28763890012320281,0.13153341044116409
0.1240247971029457,0.80000000000000004,Y,0.47455783245352379,0.067445943568396394,0.26306682088232819
0.067271049948637696,0,Y,0.94351616245921843,0.23604599736776269,0
0.50775751933945978,1.2,Y,0.76946496137252796,0.32363861619032702,0.26306682088232819
0.38204598499591391,0,N,1.7405120108669063,0.33083852956975351,0
0.36091215956957201,0.80000000000000004,N,0.8399253671743786,0.2689998113849244,0.9207338730881488
0.8602514958056694,0.40000000000000002,Y,0.89825351767259931,0.71427753060039156,0
0.43408678986031002,0,N,0.11152342375259799,0.1239497461885624,0.26306682088232819
0.36807459160226708,0,N,1.8814328224706081,0.3306701912347037,0.65766705220582056
0.74414878261767436,0,N,0.80959472891530382,0.53239135319634334,0.26306682088232819
0.1240247971029457,0,Y,0.79746247361167366,0.18610388431974759,0.13153341044116409
0.52617520170924725,0,Y,1.0867701000828487,0.66978758073010924,0.65766705220582056
0.40308059058457357,0,Y,0.18198382955444861,0.27442825653405922,0.39460023132349231
0.47893415649273519,0,Y,0.80072885003957406,0.24997907122420479,0
0.1444888886249317,0.80000000000000004,Y,0.87118925584142493,0.084071610350684403,0.78920046264698474
0.43408678986031002,0,N,1.2267576612785784,0.18610388431974759,0.39460023132349231
0.35159169606728569,0,N,0.92485115429978804,0.36777503318150589,0.39460023132349231
0.37191315907260331,0,N,0.84319174360227889,0.48424994569689178,0
0.27905579348162779,0,N,1.841303054927832,0.29798137770687833,0.52613364176465638
0.34106819203310068,0,Y,1.3779442273699667,0.044392392696048701,0.78920046264698474
0.50775751933945978,0.40000000000000002,N,1.4288063746044148,0.32363861619032702,0
0.31389745960777288,0,N,1.9686917356159459,0.27619510049462431,0
0.1240247971029457,0.80000000000000004,N,0.67334016935146013,0.2482580224509327,0
0.086569308377856105,0.40000000000000002,Y,0.22024709628128139,0.1881922641963073,0
0.71190233537090841,1.2,N,0.7004044311826344,0.59532691832633977,0.26306682088232819
0.68961507933150901,0,N,2.0335526389699679,0.74360912430665604,0.26306682088232819
0.13952789674081389,0,N,0.48435696173722492,0.22754002613053481,0
0.021642327094463999,1.2,Y,0.84879124605010803,0.041856502845940398,0.52613364176465638
1.1831345519635508,0,Y,1.3826104794098244,0.32415243222495621,0.39460023132349231
0.48933983696967231,0,N,1.6131233301787926,0.37894003409656363,0.26306682088232819
0.049721541158570901,0,N,0.20018221250989349,0.12910103349407939,0
0.16495298014691781,1.2,N,0.86512312818960979,0.21390372597155091,0.52613364176465638
0.37728343278716081,0,Y,0.71953606454605101,0.28025148006485939,0
0.18541707166890381,0.40000000000000002,N,0.89732026726462766,0.25994302995525381,0
0.21704339493015501,0.40000000000000002,N,0.1763843271066195,0.22913368373133661,0
0.13952789674081389,0,N,0.67240691894348847,0.16372838564232139,0.39460023132349231
0.26615721458292152,0,N,1.2239579100546636,0.23791561945225281,0.13153341044116409
0.17554469781950929,0,N,1.803506413404985,0.123855246999148,0.13153341044116409
0.54459288407903461,0,N,1.1539641294567988,0.30732933895933789,0
0.15753629728016161,0.40000000000000002,N,0.29070750208313217,0.13707670541265241,0.65766705220582056
0.3193638525400852,0,N,1.5902586951834901,0.33676557541441687,0.13153341044116409
0.62012398551472858,0,Y,1.0349747024404288,0.26969054302909662,0.26306682088232819
0.19527394241866039,0.40000000000000002,Y,0.91505202501608685,0.18107931692174031,0.52613364176465638
0.1061652263201215,0,N,1.7153142498516754,0.21961738414382731,0.65766705220582056
0.17791047082424799,0,N,0.33270377044185101,0.076956201771262903,0.13153341044116409
0.78557306485005818,0.40000000000000002,Y,0.4204293087911749,0.1960684397307613,0
0.71190233537090841,0,N,0.88658788757295515,0.71446399308937014,0.26306682088232819
0.3193638525400852,0,N,1.2253577856666211,0.2805782369305454,0.65766705220582056
0.34044806804758598,0.40000000000000002,Y,1.0261088235646991,0.11133242623934859,0.13153341044116409
0.41002597922233852,0,Y,1.7722425247379388,0.4240001862581424,0.39460023132349231
0.21704339493015501,0,N,0.31870501432227799,0.099088031268091806,0.13153341044116409
0.062012398551472801,0.80000000000000004,Y,0.4292951876669045,0.055580142034761797,0.26306682088232819
1.0342427830414644,0,Y,1.4745356445950204,0.34130034314637531,0.13153341044116409
0.20154029529228679,0,N,1.8641676899231348,0.18610388431974759,0.52613364176465638
0.21309940638228131,0,N,2.025153385298224,0.40741412410851341,0
1.0113509061161881,0,Y,0.29864013055089011,0.3130633588354107,0.39460023132349231
0.45388114747794012,0,N,1.5701938114121019,0.23291939435257031,0.52613364176465638
0.37207439130883718,0,Y,0.55528399274306139,0.16124224398427259,0.39460023132349231
0.41002597922233852,0.40000000000000002,N,0.76573195974064168,0.4240001862581424,0.39460023132349231
0.080430080921260305,0,N,1.7932406589172982,0.11618858071731029,0.13153341044116409
0.46171331341499111,0,N,1.8949649533861952,0.47373346131850141,0
0.36423912475185849,0,N,1.512332286117867,0.379944321062202,0.13153341044116409
0.15503099637868209,0.80000000000000004,N,1.2253577856666211,0.19421097500055259,0.13153341044116409
0.093018597827209296,0.40000000000000002,Y,0.95004891531501923,0.059309391814332799,0
0.98021758142342119,0,N,1.56272780814833,0.69463713829629836,0.26306682088232819
0.1444888886249317,0,N,2.1665408221059108,0.2107169328649163,0
0.52617520170924725,0,N,0.1110567985486122,0.22302345713750071,0
0.58911778623899214,0.40000000000000002,N,1.1539641294567988,0.4968747241456648,0.26306682088232819
0.031006199275736401,0,N,1.907097208689825,0.099088031268091806,0
0.32629683869813991,0,N,1.7722425247379388,0.11901468078526491,0.39460023132349231
0.38447687101913169,0,N,1.0522398349879021,0.49936086580371358,0.26306682088232819
0.3186538105766708,0.40000000000000002,Y,1.0139765682610691,0.1525691277719243,0.13153341044116409
0.25633445065236821,0,Y,1.914096586749612,0.34523843091360229,0.13153341044116409
0.16976514227451209,0,N,0.90291976971245702,0.2191653990705433,0
0.17313861675571221,0,N,1.4796685218388637,0.13994643770302789,1.0522672835293128
0.15503099637868209,0.40000000000000002,Y,1.0513065845799303,0.14881138652403739,0.26306682088232819
0.046509298913604599,0.40000000000000002,N,1.034041452032457,0.31041223516711358,0.39460023132349231
0.2506541149450533,0,N,1.5543285544765864,0.27065343532218178,0.26306682088232819
0.160965582920058,1.2,N,0.735867946685553,0.076605652291983198,0.26306682088232819
0.27905579348162779,0,Y,0.84132524278633591,0.2660164115612676,0.13153341044116409
0.43408678986031002,0,N,1.5300640438693265,0.42993946404208278,0.52613364176465638
0.51853217358777814,0,Y,0.54781798947928928,0.23998818730974719,0.13153341044116409
0.27905579348162779,0,Y,0.22537997352512479,0.1959177034546711,0.13153341044116409
0.45188434824458268,0.40000000000000002,N,0.44469381939843489,0.46427608387750929,0
0.26943146922643929,0,N,1.8557684362513911,0.24054101129707089,0.26306682088232819
0.31006199275736429,0,Y,0.145587063643559,0.27311973737140333,0
0.40314880422298011,0,N,1.5953915724273331,0.17370039955289429,0.26306682088232819
0.13425684286393871,0,N,0.26317661504797191,0.11322367797256019,0
0.73484692283495334,0,N,2.0293530121340959,0.61372450084889307,0
0.068151626008068594,0,N,1.3112168232000021,0.13594017924983029,0
0.062012398551472801,0,N,1.1017021066103931,0.10134818038949869,0
0.71190233537090841,0,Y,1.734445883215092,0.31316009557469271,0.52613364176465638
0.1085216974650775,0,N,1.0004444373454819,0.16745763542189249,0
0.54459288407903461,0,N,1.6065905773229918,0.30732933895933789,0
0.27905579348162779,0,N,0.63181052619672695,0.32392397838345971,0.13153341044116409
0.1444888886249317,0,N,1.2804195597369414,0.14035844521867491,0
0.43408678986031002,0,N,0.85532399890590882,0.227962773885547,0.52613364176465638
0.24915031428018,0,N,1.6303884627262659,0.44891657198038137,0.13153341044116409
0.46302797626428238,0,N,0.91365214940412964,0.38299380319195298,0
0.31006199275736429,0,N,1.0667052163114608,0.2340513708306613,0.26306682088232819
0.18541707166890381,0,N,0.41203005511943119,0.1731758432788999,0.39460023132349231
0.58142824881860955,0.40000000000000002,Y,1.0172429446889697,0.39780429493653241,0
0.71190233537090841,0,N,0.53988536101153117,0.71446399308937014,0.39460023132349231
0.58911778623899214,0.40000000000000002,N,0.72326906617793707,0.29798137770687833,1.0522672835293128
1.0342427830414644,0,Y,1.9584259811282596,0.64025192247590679,0
0.1175755076535925,0,N,1.6901164888364439,0.17834704477823979,0.13153341044116409
0.031006199275736401,0.40000000000000002,N,0.35556840543715362,0.0388966718808905,0.65766705220582056
0.16495298014691781,0.40000000000000002,Y,0.58188162937025001,0.1881922641963073,0.52613364176465638
1.269083736355892,0.40000000000000002,N,1.1245667416056959,0.94732289901051603,0.13153341044116409
0.080616118116914701,0.80000000000000004,N,0.57861525294234961,0.17864538476060551,0.26306682088232819
0.17467652423978869,0,N,1.3620789704344505,0.19754820604329509,0
0.24196617790799191,0,N,0.2263132239330965,0.31232302816917018,0.26306682088232819
0.18603719565441859,0,N,0.44609369501039209,0.2084793829971737,0
0.15472093438592471,0,N,2.002755375506907,0.22302345713750071,0
0.1240247971029457,0,N,0.80492847687544622,0.13776176859715961,0
0.20154029529228679,0.40000000000000002,N,0.91598527542405839,0.22339638211545779,0.13153341044116409
0.43408678986031002,0.80000000000000004,Y,0.33830327288968021,0.18610388431974759,0.13153341044116409
0.40308059058457357,0,N,1.568327310596159,0.2084793829971737,0
0.89917977899635648,0.40000000000000002,Y,0.51748735122021416,0.4968747241456648,0.39460023132349231
0.55811158696325569,0,N,1.3550795923746639,0.14135288696489531,0.26306682088232819
0.48933983696967231,0,Y,0.65700828721195825,0.2082556280103994,0
0.91802534691614901,0,N,1.3504133403348064,0.2532950455432037,0
0.093018597827209296,0,Y,0.30004000616284748,0.099088031268091806,0.13153341044116409
0.1550185938989718,0.40000000000000002,Y,0.63787665384854209,0.089137423251253706,0.39460023132349231
0.34017521349395952,0.40000000000000002,N,0.87445563226932532,0.1782157751859989,0.13153341044116409
0.4709221545998849,0,N,0.34436940054149517,0.5484513673720659,0.13153341044116409
0.36423912475185849,0,N,0.344836025745481,0.2712863635947706,0
0.89917977899635648,0,N,1.85810156227132,0.52000181582366567,0.39460023132349231
0.55811158696325569,0,N,0.95704829337480557,0.83323843560383504,0.65766705220582056
0.66154826774711251,0,N,1.3494800899268351,0.33282748764718989,0.65766705220582056
0.15503099637868209,0.40000000000000002,Y,0.65794153761992991,0.22339638211545779,0.39460023132349231
0.50775751933945978,0.40000000000000002,Y,1.5543285544765864,0.28763890012320281,0.39460023132349231
0.27905579348162779,0,N,1.4862012746946642,0.2127413934002543,0.13153341044116409
0.4898979485566356,0,N,1.863234439515163,0.31289837682516242,0.26306682088232819
0.61826361355818449,0,Y,1.6779842335328139,0.62436531841493426,0
0.29225203189338128,0,N,1.4526042600076892,0.31067872735636171,0
0.50775751933945978,0,N,1.4278731241964435,0.43163768980670381,0.13153341044116409
0.49274431765014809,0,N,1.4848013990827071,0.54741306964843772,0
0.17053409601655031,0,Y,1.1530308790488275,0.24204263101331289,0.13153341044116409
0.32816961313439441,0,N,2.105879545587761,0.34523843091360229,0.13153341044116409
0.15503099637868209,0.40000000000000002,N,0.41389655593537439,0.14881138652403739,0.13153341044116409
0.15217222480545919,0.80000000000000004,N,0.65280866037608654,0.097559859293419204,0.26306682088232819
0.093018597827209296,0.40000000000000002,N,0.84179186799032168,0.1189773882874692,0.26306682088232819
0.1403960703205345,0.40000000000000002,N,0.89778689246861354,0.068359013084426601,0.78920046264698474
0.30386075290221698,0,N,1.1721625124122437,0.67090635566398071,0
0.17464551804051301,0,N,1.825904423196302,0.098579883693127507,0
0.3445408863519831,0.40000000000000002,Y,0.636010153032599,0.2577480681199939,0.65766705220582056
0.3117983399168055,0,N,1.5487290520287569,0.27451194089911279,0
0.3445408863519831,0,N,2.0452182690696121,0.41026573224496021,0.13153341044116409
0.65325410944085305,0,Y,1.4558706364355898,0.54830107860594912,0
0.2330301912767247,0,N,1.0629722146795748,0.3172093895703465,0.65766705220582056
0.39785294538668442,0,Y,1.1716958872082579,0.28620112516318702,0.9207338730881488
0.41045696539227122,0.80000000000000004,Y,1.7363123840310348,0.4244148788336306,0
0.18603719565441859,0.40000000000000002,N,0.63134390099274129,0.092872639830472004,0.39460023132349231
0.3117983399168055,0,N,0.3014398817748048,0.3294860798446943,0
0.13425684286393871,0,Y,1.803506413404985,0.13215409570361869,0.13153341044116409
0.85670128598859752,0,N,0.33970314850163758,0.85378876485414346,0.13153341044116409
0.16495298014691781,0,N,2.1194116765033484,0.167990396045402,0.26306682088232819
0.2821564134092015,0.40000000000000002,Y,0.66307441486377328,0.15030308643586579,0.13153341044116409
0.58911778623899214,0,N,1.7097147474038461,0.34898565567711087,0.13153341044116409
0.18603719565441859,0,N,0.97244692510633601,0.2482580224509327,0
0.50775751933945978,0,N,0.57488225131046355,0.64763583703945748,0
0.051603617454608099,0,N,0.72420231658590872,0.0564176569502578,0
0.15503099637868209,0,Y,1.5202649145856251,0.18610388431974759,0
0.13359951143929311,0,N,1.2444894190300375,0.15802412517948961,0.13153341044116409
0.3117983399168055,0.40000000000000002,N,0.76759846055658498,0.23524473076012409,0.13153341044116409
0.58911778623899214,0.40000000000000002,N,0.35323527941722482,0.4968747241456648,0.39460023132349231
0.31006199275736429,0,Y,1.6831171107766574,0.2340513708306613,0
0.049721541158570901,0,N,0.61641189446519684,0.077317193149925301,0.26306682088232819
0.39067811087427901,0,N,0.31497201269039199,0.2665771415581239,0.39460023132349231
0.29765951304706972,0,Y,1.6989823677121734,0.20769430133357841,0
0.21704339493015501,0,N,1.6821838603686858,0.19211879128921769,0.13153341044116409
0.40608509129439241,0,N,1.8893654509383664,0.30004633789482238,0.13153341044116409
0.54831362799212302,0.80000000000000004,N,0.79139634595985897,0.34802790974872139,0.13153341044116409
0.11597868839089211,0,Y,1.2892854386126711,0.14106946398164791,0
0.094407675554762205,0.40000000000000002,Y,1.6537197229255542,0.033161533229883799,0.39460023132349231
0.81053925650688108,0,Y,1.746111513314736,0.67441684765148202,0.52613364176465638
0.1444888886249317,0.40000000000000002,Y,1.0573727122317451,0.093452761926182099,0.78920046264698474
0.27905579348162779,0,N,1.6719181058809991,0.2482580224509327,0.52613364176465638
0.50775751933945978,0,N,1.4367390030721729,0.43163768980670381,0.26306682088232819
0.67475690863857618,0,N,1.4260066233805009,0.94281013385225698,0.13153341044116409
0.27905579348162779,0.80000000000000004,Y,0.60987914160939594,0.18610388431974759,0.13153341044116409
0.1240247971029457,0,N,0.60427963916156691,0.074226390932616904,0
0.27771632567291599,0,N,1.2006266498553757,0.2118207907996694,0.26306682088232819
0.27905579348162779,0.80000000000000004,Y,0.4768909584734527,0.1959177034546711,0.26306682088232819
0.0146225235784373,0.40000000000000002,Y,0.41203005511943119,0.036227796983642702,0.26306682088232819
0.44512499680247208,0,N,1.4684695169432052,0.57230499149212277,0.26306682088232819
0.0040928183043972,0,N,0.82126035901494798,0.069999882987437895,0
0.66278851571814201,0,N,1.5935250716113905,0.27779368070513533,0.39460023132349231
0.27905579348162779,0.40000000000000002,N,0.58328150498220732,0.29798137770687833,0.13153341044116409
0.63761148190624384,0,N,1.4255399981765149,0.35705269421528329,0.9207338730881488
0.40616880803243688,0.80000000000000004,N,0.28930762647117481,1.2368397747377151,0.13153341044116409
0.31006199275736429,0,Y,1.2323571637264077,0.40985887109400898,0.13153341044116409
0.21704339493015501,0,N,0.68827217587900469,0.22063397763373829,0.39460023132349231
0.062012398551472801,0.40000000000000002,Y,0.60381301395758091,0.022016894018622502,0
0.13937286574443519,0,N,2.1936050839370851,0.1362562704611468,0
0.1880898060464723,0,N,0.9981113113255532,0.2924372512295812,0
0.13952789674081389,0.40000000000000002,N,1.152564253844842,0.22754002613053481,0.13153341044116409
0.0040928183043972,0,N,1.5449960503968707,0.084071610350684403,0
0.43408678986031002,0,Y,0.43536131531871952,0.3992038823788055,0
0.50775751933945978,0.40000000000000002,N,1.2043596514872621,0.64763583703945748,0
0.66663328442833325,0.80000000000000004,Y,0.2496444841323848,0.54098414136843964,0.26306682088232819
0.033920782007655602,0.40000000000000002,Y,0.45262644786619283,0.021333173364036,0.39460023132349231
0.41412499876659092,0,N,1.5673940601881875,0.71347947114756349,0
0.58911778623899214,0.40000000000000002,N,0.81519423136313296,0.4968747241456648,0.26306682088232819
0.48933983696967231,0.40000000000000002,N,0.950515540519005,0.34733180798486668,0.13153341044116409
0.4481698055713495,0,Y,1.4946005283664081,0.57596711477566154,0
0.055901076674225197,0,Y,1.3177495760558029,0.083263108998473404,0
0.093018597827209296,0.40000000000000002,N,1.2962848166724577,0.1189773882874692,0.26306682088232819
0.43408678986031002,0,N,1.4414052551120309,0.3192913551372854,0.39460023132349231
0.32629683869813991,0,Y,1.4241401225645576,0.28613728040696068,0.52613364176465638
0.44276852565751618,0.40000000000000002,N,0.18058395394249141,0.43797167138731391,0.78920046264698474
0.36897377138126342,0.80000000000000004,N,0.45262644786619283,0.64107235742741231,0
0.31297037424942831,0,N,0.3788996656364419,0.30609734400215871,0
0.27905579348162779,1.2,N,0.41622968195530308,0.1143875768287643,0.13153341044116409
0.27905579348162779,0.40000000000000002,N,0.93558353399146044,0.2127413934002543,0.52613364176465638
0.74811757612496854,0,Y,0.92625102991174524,0.4681843376464998,0.39460023132349231
0.1240247971029457,0,Y,0.32803751840199341,0.092872639830472004,0.13153341044116409
0.1012042344360037,0,N,1.3928762338975111,0.079149000641650605,0.26306682088232819
0.1118331595477261,0.40000000000000002,N,0.22864634995302521,0.22870683380156701,0.26306682088232819
0.9471401680360656,0.40000000000000002,Y,0.4540263234781502,0.2670184609770383,0.39460023132349231
0.17053409601655031,0,N,1.5855924431436323,0.1073752447132502,0.65766705220582056
0.067271049948637696,0.40000000000000002,Y,1.0018443129574393,0.067185567348786807,0.52613364176465638
0.52617520170924725,0,Y,0.53988536101153117,0.2974841195412703,0.26306682088232819
0.096912976456241695,0,N,1.3471469639069058,0.12272453846598209,0
0.16495298014691781,0,N,1.8375700532959465,0.2353299814100851,0
0.4709221545998849,0,N,1.164229883944486,0.35475368631117338,0.52613364176465638
0.1444888886249317,0.40000000000000002,Y,0.66214116445580162,0.084071610350684403,0.26306682088232819
0.077515498189341003,0,N,2.045684894273597,0.12105883175943891,0.65766705220582056
0.14357730636622509,0,N,0.63834327905252775,0.22664590120338479,0
0.045014800108514101,0,N,1.9304284688891131,0.10123443827122169,0.26306682088232819
0.57361468660112391,0,N,1.3345480833992904,0.58140436095427617,0.26306682088232819
0.073000995574793795,0.40000000000000002,Y,0.26457649065992911,0.2081312948227485,0
0.16495298014691781,0.40000000000000002,Y,0.4199626835871893,0.1881922641963073,0.39460023132349231
0.26296357605752058,0.40000000000000002,N,1.1404319985412117,0.35321156694232508,0
0.53032073055241313,0.40000000000000002,N,0.3770331648204987,0.49973931007134442,0.13153341044116409
0.27905579348162779,0.40000000000000002,N,0.79512934759174503,0.2127413934002543,0.39460023132349231
0.15503099637868209,0,N,0.019598258567402001,0.0857009941643746,0.13153341044116409
0.27905579348162779,0.40000000000000002,N,0.30423963299871931,0.37256637329829878,0.13153341044116409
0.1240247971029457,0,N,1.2710870556572262,0.20682195522514121,0
0.84457166083192936,0,N,1.3247489541155897,0.28046680694713177,0.13153341044116409
0.3445408863519831,0,N,1.9588926063322449,0.22548476199201761,0.13153341044116409
0.1240247971029457,0,N,1.7335126328071202,0.065066831379021306,0.26306682088232819
0.58911778623899214,0,N,0.63787665384854209,0.5963213600725602,0.13153341044116409
0.4000047756164205,0,N,1.5076660340780097,0.2069996166846399,0.13153341044116409
0.77797344540757518,0,N,1.0751044699832044,0.48613881071024451,0.13153341044116409
1.4056970503647868,0.80000000000000004,Y,0.65887478802790134,0.31382054571065471,0.13153341044116409
0.74414878261767436,0,N,0.95891479419074876,0.93195384023395222,0.39460023132349231
0.4709221545998849,0,N,1.751711015762565,0.18539249263179661,0.13153341044116409
0.74414878261767436,0.40000000000000002,N,1.2309572881144506,0.93195384023395222,0.39460023132349231
0.1093898710447981,0.40000000000000002,N,0.64067640507245638,0.12472319259284539,0.26306682088232819
0.27905579348162779,0.40000000000000002,Y,0.89498714124469902,0.2127413934002543,0.26306682088232819
0.43408678986031002,0,Y,0.58234825457423567,0.22339638211545779,0.26306682088232819
0.37575172654293948,0,N,1.5417296739689703,0.32579166125806452,0.52613364176465638
0.21575663766021189,0.40000000000000002,N,1.1516310034368702,0.1183583328240604,0.13153341044116409
0.88367667935848815,0,Y,1.0265754487686849,0.36635098186067899,0
0.11266412568831589,0.40000000000000002,N,0.41809618277124622,0.068760802455677603,0.39460023132349231
0.30076013297464338,0,N,1.949093477048544,0.3986711217552959,0
0.81053925650688108,0,Y,1.4344058770522443,0.57802036511929777,0
0.38527062972059051,0,N,1.3858768558377246,0.28574093574038789,0.26306682088232819
0.42216800685871692,0,N,1.0116434422411404,0.31109983424147092,0
0.54474791507541331,0.40000000000000002,N,0.4918229650009972,0.39534679391679067,0.26306682088232819
0.21704339493015501,0,N,0.49368946581694018,0.18610388431974759,0.26306682088232819
0.59221840616656585,0.40000000000000002,N,0.82126035901494798,0.21380691464727331,0.26306682088232819
0.168034996354926,0,N,0.83245936391060615,0.136438779945359,0.13153341044116409
0.43408678986031002,0,N,0.30097325657081891,0.44715136888971918,0.39460023132349231
0.37728343278716081,0,N,1.4022087379772263,0.25147092030602441,0.39460023132349231
0.3445408863519831,0,Y,1.2636210523934539,0.20039108773525771,0.13153341044116409
0.3445408863519831,0.80000000000000004,N,0.65794153761992991,0.22548476199201761,0
0.70401435827516112,0,N,1.1674962603723864,0.58900211070018726,0.39460023132349231
0.46302797626428238,0,N,1.8249711727883304,0.29673953753028109,0.65766705220582056
0.33323602609604969,0,N,1.5440627999888989,0.29170132107808072,0.26306682088232819
0.096119217754782896,0,N,0.43629456572669117,0.15254063630360831,0
0.71190233537090841,0.40000000000000002,Y,0.97104704949437881,0.39676502760796151,0.39460023132349231
0.80343883687273754,0,N,1.3588125940065501,0.60789784640829569,0.26306682088232819
0.4147389215122505,0,N,0.47642433326946698,0.71446399308937014,0.13153341044116409
0.32098547676220618,0,N,0.94164966164327557,0.24155887273190699,0.26306682088232819
0.37207439130883718,0.40000000000000002,N,0.68500579945110429,0.1560292748874014,0.65766705220582056
0.54459288407903461,0,Y,1.3858768558377246,0.27656056697302239,0
0.53308958414773644,0,N,1.5025331568341662,0.22579555766864701,0.26306682088232819
0.32368921733905048,0,N,1.7955737849372269,0.50153263170534457,0
0.15472093438592471,0,N,1.949093477048544,0.17834704477823979,0.26306682088232819
0.71348985277382615,0,Y,1.7507777653545935,0.34076049694828459,0.52613364176465638
0.13937286574443519,0,N,0.85299087288598008,0.16357921565113859,0.52613364176465638
0.27905579348162779,0,N,1.594458322019362,0.4968747241456648,0.65766705220582056
0.87307255920618643,0,N,0.98971205765380943,0.21711632548666021,0.78920046264698474
0.6976394837040697,0.40000000000000002,Y,0.68453917424711852,0.30714093726047392,0
0.21138786418226069,0.40000000000000002,Y,0.94024978603131837,0.1454103107250686,0.39460023132349231
0.13425684286393871,0.80000000000000004,Y,0.60941251640541028,0.11322367797256019,0
0.33176013101052459,0,N,1.2850858117767991,0.48443558775091877,0.13153341044116409
0.54453707292033837,0.40000000000000002,Y,0.44142744297053449,0.34575679663296272,0
0.50850166812207742,0.80000000000000004,Y,0.66354104006775905,0.3240861261638755,0
0.1061652263201215,0,N,1.7741090255538821,0.1096294270350097,0.65766705220582056
0.17731515179815391,0,N,1.8301040500321737,0.1040401766353798,0.9207338730881488
0.58911778623899214,0,N,1.3686117232902513,0.4968747241456648,0.39460023132349231
0.16495298014691781,0,Y,1.7895076572854121,0.1567671442487874,0.65766705220582056
0.15503099637868209,0,N,1.3172829508518169,0.17864538476060551,0
0.74521539587275953,0,N,0.61781177007715404,0.3161144072500689,0
0.58142824881860955,0,Y,1.8874989501224231,0.29428196192554379,0.13153341044116409
0.54459288407903461,0.40000000000000002,N,0.49788909265281212,0.39524021195809061,0.39460023132349231
0.091573708940959897,0,N,1.7218470027074759,0.10885038675605729,0.9207338730881488
0.1612322362338294,0,N,0.50348859510064137,0.23085488167459989,0
0.1085216974650775,0,N,0.244978232092527,0.1338943874057533,0.52613364176465638
0.58911778623899214,0.40000000000000002,Y,0.78486359310405818,0.5963213600725602,0.78920046264698474
0.43408678986031002,0,N,1.3588125940065501,0.2482580224509327,0.13153341044116409
0.16495298014691781,0,N,1.3947427347134542,0.1567671442487874,0.13153341044116409
0.63823160589175865,0,Y,1.1334326204814251,0.32160990431024028,0
0.3255898973546531,0,N,0.75126657841708311,0.1221823801330281,0.13153341044116409
0.48933983696967231,0,N,1.8455026817637039,0.41686986067960258,0.13153341044116409
0.062012398551472801,0,N,1.6821838603686858,0.038021342372629503,0.26306682088232819
0.74414878261767436,0,Y,1.5851258179396468,0.62118300040803509,0
0.43408678986031002,0,N,0.78579684351202961,0.27933512880902323,0.78920046264698474
0.184499288170342,0,N,1.0933028529386497,0.1724399131273994,0.26306682088232819
0.48320060951307647,0.40000000000000002,Y,0.41949605838320347,0.2245355187531255,0.26306682088232819
0.27905579348162779,0.40000000000000002,Y,0.81239448013921822,0.1143875768287643,0.39460023132349231
0.1240247971029457,0,N,1.7503111401506075,0.18610388431974759,0.13153341044116409
0.55150416589759621,0.40000000000000002,Y,1.2402897921941656,0.43752289346884038,0
0.71190233537090841,0,Y,0.97384680071829322,0.35705269421528329,0.26306682088232819
0.093018597827209296,0,N,0.37516666400455573,0.19853474177998279,0.13153341044116409
0.39796456770407701,0.80000000000000004,Y,0.77786421504427172,0.34360255820529573,0.52613364176465638
0.27905579348162779,0,N,1.7759755263698251,0.14881138652403739,0.39460023132349231
0.16976514227451209,0,N,2.014887630810537,0.16062564982571831,0
0.13359951143929311,0.80000000000000004,N,0.55481736753907562,0.19761980763906289,0.13153341044116409
0.53820560702823295,0,N,0.40316417624370171,0.22784664504741109,0.52613364176465638
0.27905579348162779,0,Y,1.1385654977252688,0.049364750597141897,0.13153341044116409
0.8184210323627733,0,N,1.1129011115060516,0.58343732417911143,0
0.27905579348162779,0.80000000000000004,N,0.52588660489195826,0.14881138652403739,0
0.52617520170924725,0.40000000000000002,N,1.8641676899231348,0.78804865471991858,0.13153341044116409
0.40616880803243688,0,N,1.3177495760558029,0.52545069726159255,0.39460023132349231
0.27905579348162779,0.40000000000000002,N,0.32150476554619267,0.37256637329829878,0.13153341044116409
0.90641352528738561,0,N,1.6471869700697537,0.64391300156950726,0.13153341044116409
0.36091215956957201,0.40000000000000002,N,0.71020356046633559,0.37674313305141832,0.65766705220582056
0.37207439130883718,0,N,1.7447116377027785,1.0202782124482641,0
0.19391897151031079,0,N,1.698049117304202,0.13490501409601699,0
0.65325410944085305,0.40000000000000002,N,1.1721625124122437,0.4699211238538416,0.26306682088232819
0.2821564134092015,0.80000000000000004,N,0.33550352166576569,0.25074423869397722,0.52613364176465638
0.27905579348162779,0,Y,2.1012132935479038,0.2127413934002543,0.26306682088232819
0.52988974438248038,0,N,1.1259666172176532,0.44938392156275719,0.13153341044116409
0.1085216974650775,0.40000000000000002,Y,1.0060439397933114,0.1522016474986454,0.26306682088232819
0.52617520170924725,0,N,0.38869879492014281,0.53575834365232677,0
0.51389674679605557,0,N,1.8352369272760167,0.40925286800482868,0
0.67684982708968833,0.40000000000000002,Y,0.73960094831743894,0.89581934907979444,0.65766705220582056
0.27905579348162779,0.40000000000000002,Y,1.0597058382516742,0.10619135707822749,0.26306682088232819
0.43408678986031002,0,N,1.335481333807262,0.1594663752392409,0.39460023132349231
0.1175755076535925,0,N,1.6602524757813548,0.17834704477823979,0.39460023132349231
0.4928094306686272,0.40000000000000002,Y,0.2463781077044844,0.25164768674557608,0
0.43408678986031002,0,N,2.0102213787706802,0.44715136888971918,0.39460023132349231
0.36091215956957201,0,N,0.65747491241594391,0.37674313305141832,0.13153341044116409
0.1515086921409585,0,N,1.8860990745104655,0.24355088879416259,0.13153341044116409
0.24314441348046989,0,Y,0.5459514886633462,0.20572436243001779,0.26306682088232819
0.58911778623899214,0,N,1.0872367252868345,0.15185564770409679,0.52613364176465638
0.29765951304706972,0.80000000000000004,Y,1.6896498636324584,0.23921742596530551,0.13153341044116409
0.13952789674081389,0,N,1.6826504855726718,0.25602731768670428,0
0.59221840616656585,0,N,1.961225732352174,0.55488521826177295,0.26306682088232819
0.33176013101052459,0,N,0.63974315466448506,0.43595616105144702,0.13153341044116409
0.27905579348162779,0,Y,1.1796285156760162,0.16538581341435399,0
0.34106819203310068,0,N,1.5669274349842015,0.1115188887283271,0.39460023132349231
0.28835765326434881,0,N,0.28930762647117481,0.38375412263701192,0.13153341044116409
0.8602514958056694,0,N,1.6448538440498248,0.53561849678559281,0.26306682088232819
0.15472093438592471,0,N,1.9392943477648432,0.2974841195412703,0
0.1240247971029457,0,N,2.2360679774997898,0.14881138652403739,0
0.024711940822761898,0.40000000000000002,N,0.5772153773303923,0.1027408314271817,0.13153341044116409
0.89917977899635648,0.40000000000000002,Y,0.55715049355900437,0.34387986521890462,0.52613364176465638
0.15935636117764729,0,N,1.8963648289981525,0.13840342331423261,0.52613364176465638
0.12908500882474591,0,N,1.803506413404985,0.19219001996000751,0.65766705220582056
0.31006199275736429,0,N,1.7811084036136684,0.18196024030467059,0.26306682088232819
0.15503099637868209,0,N,0.14045418639971541,0.14881138652403739,0.26306682088232819
0.26943146922643929,0.80000000000000004,N,0.66960716771957418,0.16024108958844899,0
0.15935636117764729,0,N,1.9159630875655549,0.30491778229688038,0.13153341044116409
0.72864568297980603,0,N,0.4255621860350185,0.44533224084724449,0.52613364176465638
0.2480495942058914,0,Y,0.51468759999629976,0.1338943874057533,0.65766705220582056
0.81168028464022823,0,N,1.6905831140404295,0.67533170720740632,0.26306682088232819
0.084677930222036096,0,N,1.5207315397896108,0.23153860232918641,0.13153341044116409
0.4000047756164205,0,N,1.6663186034331698,0.41435783802808351,0.39460023132349231
0.71190233537090841,0,N,1.0433739561121724,0.71446399308937014,0.26306682088232819
0.54846245774864655,0,N,0.50582172112057022,0.30939787922707029,0
0.32208309621656728,0.40000000000000002,Y,0.81099460452726124,0.33938201705976401,0
0.0155030996378682,0.80000000000000004,N,0.3938316721639864,0.031606361486807101,0.13153341044116409
0.2850678955211931,0,N,1.3140165744239165,0.37979738862088691,0.39460023132349231
0.68734542554452505,0.40000000000000002,N,1.132499370073454,0.49335147812391728,0.65766705220582056
0.2204168694113551,0,N,0.52681985529992958,0.095640563601865194,0.9207338730881488
0.15503099637868209,0,N,1.7839081548375826,0.3192913551372854,0.13153341044116409
0.13952789674081389,0,Y,0.13578793435985781,0.20475013321760269,0
0.58911778623899214,0.80000000000000004,Y,1.5025331568341662,0.4968747241456648,0
0.27905579348162779,0,N,0.96918054867843584,0.29798137770687833,0
0.52617520170924725,0.40000000000000002,N,1.4026753631812123,0.26769986949676161,0.9207338730881488
0.32816961313439441,0.80000000000000004,Y,0.28510799963530281,0.14364018502469739,0.26306682088232819
0.4928094306686272,0.40000000000000002,Y,0.81939385819900501,0.41965188101516249,0
0.81168028464022823,0,N,1.147898001804984,0.2023484963595589,0.26306682088232819
0.55811158696325569,0,N,1.9808239909195764,0.17678075987082001,0.26306682088232819
0.16495298014691781,0,N,0.0391965171348043,0.3138928185713829,0.13153341044116409
0.2058005470727729,0,N,1.3000178183043436,0.21873198566116159,0.39460023132349231
0.3445408863519831,0,Y,1.3116834484039881,0.18031608866185339,0.13153341044116409
0.1093898710447981,0.40000000000000002,N,0.50302196989665571,0.17738922426485479,0.13153341044116409
0.44865970351990608,0,N,1.6807839847567287,0.7688612916790476,0.52613364176465638
0.55811158696325569,0,N,1.6625856018012839,0.50575384411583657,0.39460023132349231
0.1444888886249317,0,N,0.64627590752028585,0.2634858172458463,0.26306682088232819
0.1853860654696281,0,N,1.0480402081520299,0.17315093189037231,0.26306682088232819
0.43408678986031002,0,Y,1.8669674411470487,0.37256637329829878,0.26306682088232819
0.20895697815904291,0,Y,1.755910642598437,0.1495708109491492,0.13153341044116409
0.1444888886249317,0,N,2.1072794211997188,0.097816058753275703,0.26306682088232819
0.16495298014691781,0,N,0.50208871948868405,0.39245573031767611,0.26306682088232819
0.58142824881860955,0,N,1.9262288420532416,0.44606653012884201,0.26306682088232819
0.19769552658209541,0,N,1.5183984137696822,0.36640065546774281,0
0.99126819084529361,0,N,1.3144831996279027,0.35093672457678682,0.39460023132349231
0.27270572386995701,0.40000000000000002,N,0.65047553435615757,0.24316640314188889,0
0.1022460427316684,0,N,1.4134077428728848,0.091223267237963299,0
0.74414878261767436,0,Y,1.3513465907427782,0.37256637329829878,0
0.31006199275736429,0.40000000000000002,Y,1.8301040500321737,0.32781537594344651,0.26306682088232819
0.1240247971029457,0,N,0.2267798491370821,0.1032316752831688,0.13153341044116409
0.23760670628982339,0.80000000000000004,N,0.30050663136683331,0.32271376224499337,0.13153341044116409
0.29455889311949601,0,N,1.0177095698929557,0.1562698860831794,0
0,0,Y,1.8762999452267648,0.049364750597141897,0.13153341044116409
0.13642727681324029,0,N,1.8623011891071917,0.16074498581866459,0.13153341044116409
0.2821564134092015,0,Y,1.5557284300885432,0.12519277972508899,0.26306682088232819
0.48933983696967231,0,Y,1.3471469639069058,0.41686986067960258,0.65766705220582056
0.31006199275736429,0,N,1.9425607241927436,0.39032468782363799,0.13153341044116409
0.58911778623899214,0.80000000000000004,Y,0.96218117061864916,0.14881138652403739,0.52613364176465638
1.4056970503647868,0,N,1.4493378835797888,0.62799962149511745,0.13153341044116409
0.49338924659508349,0,Y,2.0419518926417117,0.37064909140162577,0.13153341044116409
0.1240247971029457,0.40000000000000002,Y,0.30237313218277628,0.074226390932616904,0.78920046264698474
0.43408678986031002,0,N,2.0064883771387931,0.27933512880902323,0.39460023132349231
0.077515498189341003,0.80000000000000004,N,0.83525911513452078,0.11314029194748899,0.13153341044116409
0.2318767606636673,0.80000000000000004,N,0.51095459836441381,0.28707839388133322,0.26306682088232819
0.68734542554452505,0,N,1.7703760239219957,0.66425106192236261,0
0.26738195945431309,0,N,1.5015999064261949,0.14319513635600339,0.39460023132349231
0.24613031047072331,0.40000000000000002,Y,0.24031198005266929,0.22185746990142,0.26306682088232819
0.15503099637868209,0,Y,1.1968936482234891,0.14881138652403739,0.13153341044116409
0.4928094306686272,0,Y,0.42136255919914661,0.1796458678914688,0
0.1557658433015171,0,N,1.7470447637227071,0.14940060798920959,0
0.9629812352460394,0,N,1.8077060402408569,0.3184445170973404,0
0.94539761963676905,0,N,1.9187628387894691,0.36098392016291592,0.13153341044116409
0.083313657453903706,0,N,0.35276865421323889,0.091306354923052196,0.26306682088232819
0.18496128053955049,0,N,1.5851258179396468,0.25939483023765691,0.26306682088232819
0.29765951304706972,0,N,1.8665008159430641,0.26317502156921679,0.13153341044116409
0.20934455564998961,0,N,1.2720203060651978,0.2887216505042034,0
0.1240247971029457,0,N,0.0041996268358718003,0.1239497461885624,0
0.020107520230315,0,N,1.9598258567402165,0.048822741434179098,0.39460023132349231
0.83184671664916721,0.40000000000000002,N,1.2010932750593617,0.21812359585212229,0
0.093018597827209296,0,N,0.1119900489565837,0.19853474177998279,0
0.77797344540757518,0,Y,0.90385302012042845,0.43208355891034927,0.13153341044116409
0.1175755076535925,0,N,1.4899342763265504,0.59532691832633977,0.13153341044116409
0.37728343278716081,0,Y,0.1119900489565837,0.28025148006485939,0.13153341044116409
0.1240247971029457,0.40000000000000002,Y,1.3938094843054825,0.18610388431974759,0.26306682088232819
0.34106819203310068,0,N,1.5267976674414261,0.5963213600725602,0.13153341044116409
0.2954270666992167,0,N,0.41856280797523188,0.1566875620584913,0.13153341044116409
0.074414878261767403,0,Y,1.1227002407897528,0.12643588784661119,0
0.20154029529228679,0,Y,1.6831171107766574,0.18008897735027751,0.65766705220582056
0.4960991884117828,0,N,1.2122922799550195,0.45247890053981887,0
0.48933983696967231,0.40000000000000002,N,0.055061774070320299,0.35726578354768801,0
0.0303302641315253,0.40000000000000002,Y,0.2244467231171533,0.14718543362014441,0
0.52736583976143547,0,N,1.06017246345566,0.33543050399333058,0.13153341044116409
0.14299438981984119,0,N,1.6947827408763017,0.29861005463471829,0
0.15472093438592471,0,N,2.0662164032489709,0.2974841195412703,0
0.18541707166890381,0,N,1.7288463807672625,0.25994302995525381,0
0.43718740978788367,0,N,1.7027153693440598,0.23427333577754139,0.52613364176465638
0.1111262182042393,0,N,1.3107501979960163,0.13640044325762499,0
0.70371669876211396,0,N,1.6933828652643439,0.58876343871429471,0.65766705220582056
0.095350264012744601,0,N,1.2127589051590055,0.1212209049548591,0.52613364176465638
0.31936075192015762,0,Y,0.29630700453096143,0.42104289118294252,0
0.58911778623899214,0.40000000000000002,Y,0.6453426571123142,0.33113023148751158,0.26306682088232819
0.23361310782310851,0,N,1.8128389174847008,0.23539628747116589,0.26306682088232819
0.18541707166890381,0,N,0.41156342991544548,0.2475477495379157,0
0.89607915906878277,0,Y,1.6299218375222799,0.24742930856491649,0.65766705220582056
0.62841504320106045,0,N,1.6299218375222799,0.35213672257085721,0
0.48933983696967231,0.80000000000000004,N,0.96871392347444985,0.31256274434500098,0.52613364176465638
0.38953088150107668,0,N,1.7437783872948069,0.56163933712254976,0
0.43718740978788367,0,N,0.59774688630576622,0.28119975369880867,0
1.4988117674097508,0.80000000000000004,N,0.84132524278633591,0.30630446653491611,0.13153341044116409
0.71190233537090841,0,N,1.0475735829480446,0.2745731751804934,1.0522672835293128
0.7241807902841001,0,N,1.0909697269187206,0.3629598258661238,0.52613364176465638
0.15935636117764729,0,N,1.594458322019362,0.13047414326291751,0.52613364176465638
0.88367667935848815,0,Y,1.0629722146795748,0.62828632621817071,0.13153341044116409
0.60811528453523589,0,N,1.4190072453207141,0.18051179969028519,0.13153341044116409
0.54474791507541331,1.2,N,0.79232959636783029,0.8652468848018755,0
0.16495298014691781,0,N,2.1292108057870496,0.13432056607056261,0.13153341044116409
0.63761148190624384,0,N,0.65467516119202951,0.22940576979525409,0.39460023132349231
0.41002597922233852,0.40000000000000002,N,1.3728113501261232,0.2118207907996694,1.3153341044116411
0.34612840375490089,0,N,1.3989423615493259,0.50363704735595649,0.26306682088232819
0.50775751933945978,0,N,1.7209137522995046,0.51803694869980532,0.26306682088232819
0.074290853464664394,0.80000000000000004,N,0.30703938422263388,0.100957653352582,0.26306682088232819
0.2821564134092015,0,N,1.2281575368905358,0.30096477753053508,0.26306682088232819
0.1240247971029457,1.2,N,0.81986048340299067,0.1239497461885624,0
0.093018597827209296,0,N,0.24124523046064081,0.19853474177998279,0.26306682088232819
0.58911778623899214,0,Y,1.2948849410605003,0.2127413934002543,0.39460023132349231
0.2480495942058914,0,N,1.96169235755616,0.26814737947031009,0.26306682088232819
0.30698617778921122,0,N,0.18431695557437741,0.27065343532218178,0.52613364176465638
0.68734542554452505,0,N,1.0583059626397171,0.34523843091360229,0.52613364176465638
0.3117983399168055,0,Y,1.1968936482234891,0.54938256104202476,0
0.16495298014691781,0,N,0.76619858494462767,0.21390372597155091,0
0.095350264012744601,0,N,1.9187628387894691,0.2022739113639675,0.39460023132349231
0.58911778623899214,0,Y,0.91365214940412964,0.74549135125540111,0.52613364176465638
0.53731882972894685,0,Y,0.76946496137252796,0.3034409993841703,0.26306682088232819
0.54459288407903461,0,N,1.8119056670767288,0.21265614275029329,0
0.4928094306686272,0,N,1.8511021842115327,0.2287380103297241,0.26306682088232819
0.1291470212232973,0,N,1.2146254059749486,0.095953000148397694,0.39460023132349231
0.13425684286393871,0.40000000000000002,N,0.36163453308896848,0.15865660594210479,0.26306682088232819
0.1444888886249317,0,N,1.588392194367547,0.084071610350684403,0.26306682088232819
0.1444888886249317,0,N,0.66820729210761676,0.1685018253601723,0.13153341044116409
0.1444888886249317,0,N,0.99577818530562423,0.42179247038863621,0.26306682088232819
0.53731882972894685,0.40000000000000002,Y,0.89732026726462766,0.68319050443788742,0.39460023132349231
0.1830543992840927,0.40000000000000002,N,1.0816372228390052,0.2056093523668158,0.13153341044116409
0.54459288407903461,0,N,1.6439205936418531,0.2304073717010513,0.39460023132349231
0.74414878261767436,0,N,1.654652973333526,0.46579761778757428,0.39460023132349231
0.27905579348162779,0,Y,1.843636180947761,0.41400251510908598,0
0.3685892945102443,0,N,0.57114924967857761,0.213246184650417,0.13153341044116409
0.2821564134092015,0,Y,1.195960397815518,0.50184700746176236,0
0.3590207814137521,0.40000000000000002,N,1.3756111013500376,0.62511116837084835,0.13153341044116409
0.5846932016023445,0.80000000000000004,Y,0.4507599470502498,0.246484167500782,0.26306682088232819
0.1240247971029457,1.6000000000000001,N,0.7466003263772254,0.088433042552888294,0
0.14927624579310539,0.80000000000000004,N,1.1688961359843433,0.17664829691864961,0.13153341044116409
0.95902174359852776,0,N,1.2869523125927422,0.4759411771880076,0.26306682088232819
0.3425378858787706,0,N,0.48948983898106829,0.1280064240987798,0.9207338730881488
0.58296615630268611,0,N,1.426939873788472,0.3688669575169643,0.13153341044116409
0.168034996354926,0,Y,1.6028575756911057,0.11933912551608759,0.26306682088232819
1.0342427830414644,0,Y,1.1987601490394324,0.64025192247590679,0
0.74414878261767436,0,N,1.1320327448694678,0.74549135125540111,0
0.20588116319088989,0,N,1.3112168232000021,0.14959646818763259,0.13153341044116409
0.63124900981486276,0.40000000000000002,N,0.8366589907464782,0.79616439726021204,0.13153341044116409
0.52402957271936623,0,N,1.7713092743299672,0.88972881292479455,0.26306682088232819
0.1240247971029457,0,N,1.3564794679866214,0.18610388431974759,0.13153341044116409
0.069286452901560602,0,N,1.566460809780216,0.0727482654899861,0
0.81505065850150071,0,N,1.2136921555669768,0.67803421993766599,0
0.3445408863519831,0,N,0.59448050987786571,0.22548476199201761,0
0.021642327094463999,0.40000000000000002,N,0.31357213707843462,0.041856502845940398,0.52613364176465638
0.2027402352042578,0,N,0.56368324641480505,0.18706603076287689,0.26306682088232819
0.33038345576268191,0,Y,1.929961843685128,0.28941402301827862,0
0.32816961313439441,0.80000000000000004,N,0.8035286012634888,0.26963907938213849,0.13153341044116409
0.18541707166890381,0.40000000000000002,Y,0.52402010407601496,0.5202446645693114,0
0.184499288170342,0.40000000000000002,N,0.091925165185195806,0.2352757581182901,0.39460023132349231
0.58296615630268611,0,N,0.5963470106938088,0.54664223371900034,0
0.43408678986031002,0,N,1.6397209668059811,0.3192913551372854,0.26306682088232819
1.3363671887842401,0,N,0.46009245112996511,0.65748105645752497,0.39460023132349231
0.42947306740808039,0,N,1.7139143742397178,0.30732933895933789,0.52613364176465638
0.23837566003186161,0,N,0.35043552819331009,0.2156395425739501,0.26306682088232819
0.1240247971029457,0,N,2.2132033425044875,0.27588214185312271,0.13153341044116409
0.52988974438248038,0.80000000000000004,Y,0.58048175375829258,0.7933047339442415,0.13153341044116409
0.4709221545998849,0,Y,1.2892854386126711,0.18829481856524549,0.13153341044116409
0.087521198695621194,0.40000000000000002,N,1.3681450980862655,0.11368782040012559,0
0.21396757996200191,0,N,0.66494091567971636,0.32701977779547281,0
0.48979872871895319,0,N,1.088169975694806,0.19237819790388461,0.26306682088232819
0.084820558738704505,0.40000000000000002,N,0.60847926599743873,0.1389512501068515,0.13153341044116409
0.59957617725469803,0.80000000000000004,Y,0.20998134179359459,0.30301288150947547,0.52613364176465638
0.184499288170342,0,N,1.8870323249184371,0.2156395425739501,0.26306682088232819
1.1372267733158952,0,Y,1.5468625512128138,0.70218357356524275,0.52613364176465638
0.1240247971029457,0,N,1.7442450124987929,0.2482580224509327,0.26306682088232819
0.97090331916099004,0,Y,0.16378544659900371,0.3343746787957384,0.26306682088232819
0.2240073872874854,0,N,0.74333394994932511,0.13595957134868411,0
0.16495298014691781,0,N,0.47875745928939561,0.1174856883756408,0.13153341044116409
0.27751788599755128,0.80000000000000004,N,0.41949605838320347,0.21168437484273259,0.13153341044116409
0.43408678986031002,0,Y,0.35230202900925328,0.1717605929875527,0
0.1506808266202963,0.40000000000000002,N,0.62807752456484089,0.14532327003521339,0.13153341044116409
0.20154029529228679,0,N,1.5109324105059101,0.069564828708153101,0.39460023132349231
0.71395494576296215,0,Y,0.77459783861637144,0.51163971904293348,0
0.1200622048355066,0.80000000000000004,N,0.59681363589779446,0.14499860154940389,0
0.87437481957576735,0,N,2.0242201348902524,0.48361515279941319,0.52613364176465638
0.41002597922233852,0,N,0.20578171495772271,0.2788248182691867,0.13153341044116409
0.093018597827209296,0,Y,1.1446316253770841,0.19853474177998279,0
0.42348266970800807,0,N,1.6910497392444157,0.54627482803071703,0.52613364176465638
0.27905579348162779,0,N,0.85439074849793739,0.37256637329829878,0
0.58911778623899214,0,N,1.3457470882949487,0.5963213600725602,0.39460023132349231
0.53169430518032823,0,Y,1.714380999443704,0.30043440362688451,0
0.20064731675314559,0,Y,0.29210737769508938,0.1234724022167773,0
0.27905579348162779,0,Y,1.9276287176651989,0.16538581341435399,0
0.0040928183043972,0,N,1.708314871791889,0.084071610350684403,0.39460023132349231
0.4095546849933473,0,N,1.1343658708893971,0.42354670948494649,0.39460023132349231
0.36277253152611622,0,N,0.25244423535629928,0.47325611734671641,0.26306682088232819
0.55380172526392835,0,N,2.0298196373380808,0.2809909157111527,0.26306682088232819
0.54459288407903461,0.80000000000000004,Y,0.90898589736427182,0.30732933895933789,0.13153341044116409
0.2480495942058914,0.80000000000000004,Y,0.76246558331274128,0.22339638211545779,0
1.3363671887842401,0,Y,1.2146254059749486,0.41079118353890182,0
0.13425684286393871,0,N,1.7745756507578676,0.17248399285979391,0
0.55217700042187978,0,N,1.6439205936418531,0.3503512323613942,0.52613364176465638
0.58911778623899214,0,Y,1.5561950552925294,0.28650677447512057,0.26306682088232819
0.2603776590379242,0,N,1.0200426959128843,0.15540141839451291,0
0.28069912204324188,0,N,1.3200827020757315,0.24957571556804639,0.13153341044116409
0.043284654188927997,0,Y,1.74564488811075,0.059209970015209397,0.13153341044116409
0.45188434824458268,0,N,1.4054751144051267,0.33152329441427841,0
0.2850678955211931,0,N,1.9840903673474768,0.30376618996494892,0.13153341044116409
0.30975193076460689,0,Y,1.4824682730627785,0.2098181090830441,0.13153341044116409
0.062012398551472801,0,N,2.2267354734200748,0.063571402217413295,0
0.63761148190624384,0,N,1.2556884239256958,0.64298173331455277,0.39460023132349231
1.3271149389203605,0,N,0.97571330153423641,0.32633560963091268,0.39460023132349231
0.58911778623899214,0.40000000000000002,N,0.92298465348384495,0.2482580224509327,0.13153341044116409
0.1240247971029457,0,N,0.89125413961281286,0.1239497461885624,0.26306682088232819
0.43408678986031002,0,N,0.81846060779103336,0.55902886227685,0.39460023132349231
0.2480495942058914,0,N,1.4050084892011412,0.22339638211545779,0.13153341044116409
0.060251246432610997,0,N,2.1012132935479038,0.087448818951063906,0.39460023132349231
0.2480495942058914,0.40000000000000002,Y,0.53101948213580163,0.22339638211545779,0.26306682088232819
0.17013101542596579,0,N,2.0554840235572982,0.16091899261337941,0
0.15472093438592471,0.40000000000000002,N,0.52402010407601496,0.2123862196512479,0.26306682088232819
0.31936075192015762,0.40000000000000002,Y,0.57021599927060573,0.2103421432620694,0.65766705220582056
0.18603719565441859,0,N,1.1852280181238453,0.1375647150388071,0
0.36592276137253099,0.40000000000000002,N,0.6341436522166557,0.10573109307043289,0.26306682088232819
0.41002597922233852,0.40000000000000002,Y,0.86698962900555288,0.10573109307043289,0.39460023132349231
0.35656509043111378,0,N,0.73446807107359557,0.1453129027208262,0.13153341044116409
0.2318767606636673,1.6000000000000001,N,0.64347615629637112,0.121249396423175,0.13153341044116409
0.55994095272052413,0,N,0.83852549156242118,0.35502025308541713,0.39460023132349231
1.0342427830414644,0.80000000000000004,N,0.51468759999629976,0.80040455425958446,0.39460023132349231
0.52736583976143547,0,Y,1.5860590683476183,0.2530671137966764,0.78920046264698474
0.062012398551472801,0,Y,0.5772153773303923,0.082513604377775204,0.52613364176465638
0.13022603695809301,0,N,1.9276287176651989,0.154778186171351,0.26306682088232819
0.15503099637868209,0.80000000000000004,Y,0.58981425783800812,0.1115188887283271,0.13153341044116409
0.71055666632234138,0,Y,0.53008623172782998,0.29694464626815759,0.13153341044116409
0.1795879062050654,0,Y,1.7806417784096824,0.1685018253601723,0.13153341044116409
0.1093898710447981,0.40000000000000002,Y,0.94164966164327557,0.1019810340770918,0.39460023132349231
0.17554469781950929,0.40000000000000002,Y,0.71860281413807936,0.16525983935680011,0.39460023132349231
0.20183175356547869,0.80000000000000004,N,1.13623237170534,0.15966671053739939,0.39460023132349231
0.58911778623899214,0,N,1.3490134647228489,0.29798137770687833,0.26306682088232819
0.55217700042187978,0,Y,1.5580615561084721,0.4521701932430659,0
0.086569308377856105,0,N,1.2612879263735253,0.112771916654263,0.39460023132349231
0.37728343278716081,0,N,1.5277309178493976,0.217893650310714,0.13153341044116409
0.43592235685743358,0,Y,1.7027153693440598,0.37403815901630427,0.13153341044116409
0.29225203189338128,0,Y,0.27064261831174419,0.221810928864171,0.13153341044116409
0.52617520170924725,0,Y,0.61454539364925376,0.44640551893380509,0.13153341044116409
0.073000995574793795,0,N,1.708314871791889,0.1664333596774355,0.13153341044116409
0.1444888886249317,0,N,2.1054129203837757,0.2107169328649163,0
0.27905579348162779,0.80000000000000004,Y,0.98037955357409401,0.18610388431974759,0.78920046264698474
0.43718740978788367,0,N,1.4194738705247001,0.29601859896289451,0
0.30695827220986299,0.40000000000000002,Y,1.2038930262832757,0.20288364370292741,0
0.2821564134092015,0.80000000000000004,Y,0.64440940670434277,0.41814608453916741,0.13153341044116409
0.15503099637868209,0.80000000000000004,N,0.30563950861067668,0.17864538476060551,0
0.73615538444438944,0,N,0.9439827876632042,0.23089411338228091,0.26306682088232819
0.58911778623899214,0,N,1.3247489541155897,0.5963213600725602,0.39460023132349231
0.30698617778921122,0,Y,1.4502711339877603,0.32485584331837891,0.39460023132349231
0.1093898710447981,0.80000000000000004,N,0.13998756119572969,0.22478866022816291,0.26306682088232819
0.52988974438248038,0,N,1.2426229182140949,0.269486925991132,0
0.093018597827209296,0,N,0.065327528558007095,0.080273816960164807,0.39460023132349231
0.035099017580133597,0,N,1.0480402081520299,0.034978125382508399,0.13153341044116409
0.41002597922233852,0.80000000000000004,Y,0.80866147850733217,0.1511981063829628,0
0.18293657572684491,0,N,0.99204518367373817,0.20549598317351689,0
1.0200915536920181,0,Y,1.4502711339877603,0.63174177447892566,0.26306682088232819
0.43408678986031002,0,Y,0.13998756119572969,0.20305504002279651,0.39460023132349231
0.71934382319708523,0,Y,1.3774776021659809,0.22526100700524329,0.39460023132349231
0.54843145154937079,0.40000000000000002,Y,0.51328772438434245,0.23194628391508909,0.65766705220582056
0.3445408863519831,0,N,0.34670252656142397,0.22548476199201761,0.13153341044116409
0.54846245774864655,0,N,1.6061239521190065,0.39789968914589391,0
0.1444888886249317,0,N,2.1245445537471919,0.1685018253601723,0.26306682088232819
0.10542107753750379,0,N,0.18851658241024929,0.093405400453981505,0.26306682088232819
0.1444888886249317,0.40000000000000002,N,0.36396765910889739,0.14035844521867491,0
0.37207439130883718,0,Y,1.5529286788646288,0.48444386668542949,0.26306682088232819
0.34044806804758598,0.40000000000000002,N,0.41436318113935999,0.49604601025964851,0
0.4928094306686272,0,N,0.4008310502237728,0.2796483857905071,0.26306682088232819
0.37759349477991822,0.40000000000000002,Y,0.92158477787188764,0.21805937817091811,0.13153341044116409
0.46824942022231641,0,N,1.8753666948187928,0.34277071174946461,0.13153341044116409
0.69576050802796008,0,N,1.6093903285469069,0.29101267781378509,0.26306682088232819
0.32893856687643258,0,N,1.9920229958152345,0.2470249087188198,0.13153341044116409
0.20245807879084851,0,N,1.562261182944344,0.16009714054695759,0
0.14882975652353481,0.80000000000000004,N,0.62154477170904021,0.17988849288212769,0.78920046264698474
0.2821564134092015,0,N,1.5048662828540948,0.37629562307786979,0.13153341044116409
0.63823160589175865,0.80000000000000004,N,0.7069371840384352,0.35738414993569162,0.13153341044116409
0.093018597827209296,0.40000000000000002,N,0.87818863390121138,0.2127413934002543,0
1.0342427830414644,0,N,1.6593192253733835,0.85378876485414346,0.65766705220582056
0.43408678986031002,0,N,0.96264779582263516,0.37256637329829878,0
0.27905579348162779,0,N,1.1217669903817811,0.4968747241456648,0
0.1444888886249317,0.80000000000000004,N,0.55948361957893333,0.23416973721866491,0.13153341044116409
0.74414878261767436,0,Y,0.84179186799032168,0.46579761778757428,0.9207338730881488
0.3117983399168055,0.40000000000000002,N,0.77459783861637144,0.2057943231558825,0.13153341044116409
0.1444888886249317,0,N,1.6168563318106788,0.1620071876990582,0.39460023132349231
0.16495298014691781,0,N,2.0839481610004307,0.3138928185713829,0.52613364176465638
0.37728343278716081,0.40000000000000002,N,0.62621102374889781,0.1960684397307613,0.26306682088232819
0.32816961313439441,0.80000000000000004,N,0.4703582056176519,0.43163768980670381,0.26306682088232819
0.051603617454608099,0,N,0.8226602346269053,0.051935322470200197,0.13153341044116409
0.89917977899635648,0,N,1.7741090255538821,0.48606526990459142,0.39460023132349231
0.15503099637868209,1.2,N,1.1231668659937384,0.1275014090936302,0
0.34416261072081922,0,Y,1.3228824532996464,0.60128372358424409,0.13153341044116409
1.519303764511085,0,N,0.44889344623430671,0.57337215360904481,0.13153341044116409
0.15503099637868209,0,N,2.014887630810537,0.29798137770687833,0
0.1444888886249317,0,N,2.1516088155783666,0.069999882987437895,0.13153341044116409
0.2204168694113551,0,Y,1.022375821932813,0.15084009840412399,0.26306682088232819
0.58911778623899214,0.40000000000000002,Y,1.746111513314736,0.4968747241456648,0
0.81168028464022823,0.40000000000000002,Y,1.4059417396091127,0.2699175051706813,0.13153341044116409
0.27905579348162779,0.40000000000000002,Y,0.90525289573238565,0.16178268686232811,0.26306682088232819
0.26665331377133328,0,N,0.61734514487316805,0.2042173725940932,0.26306682088232819
0.48817400387690463,0,N,1.6747178571049135,0.24941759537739261,0.65766705220582056
0.37728343278716081,0,N,0.33223714523786529,0.36339517848539088,0
0.13952789674081389,0.40000000000000002,Y,0.90758602175231484,0.1021957642793996,0.26306682088232819
0.52617520170924725,0,N,1.1245667416056959,0.53575834365232677,0
0.28488495894546628,0,Y,0.057394900090249203,0.15161578235827469,0.9207338730881488
0.15503099637868209,0,N,0.027064261831174299,0.156662426914977,0.52613364176465638
0.29145827319192241,0,N,1.7503111401506075,0.51676400658004651,0.26306682088232819
0.3036127033080111,0,Y,0.1003244188569395,0.26794846128706779,0.13153341044116409
0.32816961313439441,0,N,0.31683851350633491,0.37529036650728859,0
0.31365251063349447,0.80000000000000004,N,0.96591417225053544,0.33127015293924111,0.13153341044116409
0.73952265768573444,0,N,2.0265532609101813,0.46301559745201443,0
0.17013101542596579,0,N,1.9164297127695404,0.322196664470558,0.26306682088232819
0.34416261072081922,0,N,1.6877833628165153,0.23713180573358261,0.39460023132349231
0.41002597922233852,0.80000000000000004,N,0.60521288956953834,0.26486563966428761,0.13153341044116409
0.1240247971029457,0,Y,1.4680028917392194,0.10619135707822749,0.26306682088232819
0.40730983616578398,0,N,1.6831171107766574,0.40516575941641009,0.39460023132349231
0.47426772350173679,0,Y,1.6355213399701092,0.32813586766950281,0.39460023132349231
0.093018597827209296,0,Y,0.2515109849483278,0.1189773882874692,0.13153341044116409
0.96057205356231457,0,N,1.7213803775034904,0.52969212220588979,0
0.55380172526392835,0.40000000000000002,Y,0.87445563226932532,0.4685572626244569,0
0.67684982708968833,0.80000000000000004,N,0.86652300380156722,0.34018902671206319,0.39460023132349231
0.2433304506761243,0.40000000000000002,Y,0.50488847071259868,0.0546341805356758,0.78920046264698474
0.38953088150107668,0,N,2.00462187632285,0.40427991342377079,0.26306682088232819
0.41002597922233852,0,N,0.6957381791427768,0.4240001862581424,0
0.61826361355818449,0,N,1.2262910360745929,0.78054629918336871,0
0.13937286574443519,0,N,1.4652031405153048,0.081610305496167504,0.52613364176465638
0.37191315907260331,0,Y,1.2841525613688278,0.32271376224499337,0
0.15503099637868209,0.80000000000000004,N,1.0051106893853397,0.14881138652403739,0.39460023132349231
0.27270572386995701,0,Y,1.4218069965446285,0.20837712696821789,0.26306682088232819
0.15503099637868209,0,N,1.3424807118670483,0.089143390050900995,0
0.3199839765255999,0,Y,1.0653053406995034,0.2810754205111578,0
0.24184835435074409,0,N,1.1768287644521014,0.16372838564232139,0.39460023132349231
0.15503099637868209,0,N,1.13623237170534,0.29798137770687833,0.13153341044116409
0.17178984708721759,0,Y,0.3551017802331678,0.1080465096735729,0
0.1979466767962289,0,N,1.7031819945480453,0.1076302508131772,0.13153341044116409
0.52617520170924725,0,N,0.70647055883444965,0.53575834365232677,0
0.37207439130883718,0,N,2.0391521414177967,0.44037092152549878,0
0.20464091521986039,0,Y,1.7162475002596471,0.16159741773327899,0.13153341044116409
0.16495298014691781,0.40000000000000002,N,0.52775310570790135,0.26151759379718431,0.26306682088232819
0.15503099637868209,0.80000000000000004,N,0.75359970443701174,0.068489089316738,0.13153341044116409
0.21704339493015501,0,N,1.1553640050687564,0.099088031268091806,0.26306682088232819
0.55610548587011566,0,N,1.1847613929198595,0.23502291498323519,0.52613364176465638
0.52710538768751936,0,N,1.4208737461366574,0.67090635566398071,0.13153341044116409
0.3117983399168055,0.40000000000000002,Y,0.86932275502548195,0.27451194089911279,0.13153341044116409
0.39769791439030572,0.40000000000000002,Y,1.5403297983570132,0.34338872302293499,0.13153341044116409
0.94663166636794338,0,Y,1.2407564173981511,0.36144060409092221,0
0.68981351900687371,0.40000000000000002,Y,0.5678828732506771,0.69321025274563897,0.52613364176465638
0.27905579348162779,0,N,1.6317883383382232,0.14881138652403739,1.0522672835293128
0.71395494576296215,0,N,1.2192916580148063,0.55963956422075256,0
0.71314258334193781,0,Y,1.6154564561987212,0.35764937418001469,0.39460023132349231
0.3030266861416997,0,Y,1.189894270163703,0.2674785758148418,0.26306682088232819
0.30075703235471579,0,N,1.8203049207484725,0.39866739250551642,0.26306682088232819
0.1240247971029457,0,N,0.79746247361167366,0.1550267779616572,0
0.27905579348162779,0,N,1.1096347350781512,0.2256565312368646,0
0.11993818003840361,0,N,1.6999156181201451,0.095192606118343098,0.39460023132349231
0.66278851571814201,0,N,1.8366368028879745,0.43882924966662418,0.26306682088232819
0.062012398551472801,0.40000000000000002,N,0.32523776717807878,0.089143390050900995,0.26306682088232819
0.13425684286393871,0,Y,2.0872145374283302,0.13215409570361869,0.13153341044116409
0.81168028464022823,0,N,1.7190472514835613,0.67533170720740632,0.52613364176465638
0.1240247971029457,0,Y,1.2724869312691836,0.1239497461885624,1.183800693970477
0.39005488626883672,0,N,1.6649187278212128,0.59543946708468731,0
1.3271149389203605,0.40000000000000002,N,1.1996933994474042,0.51010110516887819,0.26306682088232819
0.42788555000516271,0,N,1.7190472514835613,0.27560587902945211,0.39460023132349231
0.3445408863519831,0,N,0.55201761631516089,0.19184849526519429,1.183800693970477
0.37191315907260331,0.80000000000000004,N,1.065771965903489,0.1207935329301202,0.39460023132349231
0.1751850259079108,0,Y,0.36630078512882619,0.18680751916815699,0
0.21704339493015501,0.40000000000000002,N,0.23237935158491141,0.4258413914593121,0.26306682088232819
0.17467652423978869,0,N,2.0433517682536686,0.1095895986473638,0.52613364176465638
0.093018597827209296,0.40000000000000002,N,0.51748735122021416,0.084881379647820401,0.26306682088232819
0.20154029529228679,0,N,2.0298196373380808,0.22339638211545779,0.13153341044116409
0.37728343278716081,0.40000000000000002,Y,0.294907128919004,0.24517520082815261,0.26306682088232819
0.34863370465638038,0,Y,1.6266554610943798,0.165681169996896,0.26306682088232819
0.2752110247714365,0.40000000000000002,Y,0.98877880724583778,0.24517520082815261,0.39460023132349231
0.36408719437540749,0.80000000000000004,N,0.21558084424142379,0.37979813447084287,0.26306682088232819
0.58911778623899214,0,Y,1.4311395006243439,0.37256637329829878,0.13153341044116409
0.3117983399168055,0,Y,1.6336548391541661,0.117443100343158,0.65766705220582056
0.1240247971029457,0,N,0.46989158041366619,0.18610388431974759,0.39460023132349231
0.6399059406526485,0,N,0.83105948829864906,0.35827916988278857,0
0.37728343278716081,0,N,0.72606881740185181,0.24517520082815261,0.13153341044116409
0.1085216974650775,0.40000000000000002,N,0.32150476554619267,0.074226390932616904,0.26306682088232819
0.25633445065236821,0,N,1.4297396250123866,0.23003944391779879,0.26306682088232819
0.17467652423978869,0.80000000000000004,Y,0.59401388467387972,0.098594800692245799,0.52613364176465638
0.20245807879084851,0.40000000000000002,N,0.3518354038052674,0.11196043190222831,0.13153341044116409
0.99873448363089101,0,Y,1.13623237170534,0.58940979228609014,0.13153341044116409
0.27905579348162779,0,Y,1.7246467539313908,0.14881138652403739,0
0.87307255920618643,0.40000000000000002,Y,1.3256822045235608,0.21711632548666021,0.13153341044116409
1.269083736355892,0,N,1.0844369740629201,0.89316964252641362,0.13153341044116409
0.1061652263201215,0,N,1.9588926063322449,0.14310399349139069,0.39460023132349231
0.2480495942058914,0,N,1.691982989652387,0.22339638211545779,0.13153341044116409
0.062012398551472801,0.80000000000000004,N,0.97104704949437881,0.089143390050900995,0.39460023132349231
0.3117983399168055,0.40000000000000002,N,0.76713183535259899,0.54938256104202476,0
0.27595517355405419,0,N,0.70087105638662039,0.36883712351872772,0.13153341044116409
0.1444888886249317,0,Y,1.4297396250123866,0.12025599886689289,0
0.6464172425005531,0,N,1.0713714683513185,0.42846588828418303,0
0.14262851666838749,0.40000000000000002,N,0.53895211060355952,0.13886674530684651,0
0.48933983696967231,0,N,1.4969336543863367,0.22722057859441669,0.39460023132349231
0.1301609239396139,0.40000000000000002,Y,0.6182783952811397,0.082127627025589595,0
0.4709221545998849,0.80000000000000004,N,0.70833705965039251,0.18539249263179661,0.13153341044116409
0.062012398551472801,0,N,1.961225732352174,0.2482580224509327,0.26306682088232819
0.89917977899635648,0,N,0.91505202501608685,0.37256637329829878,0.65766705220582056
0.17467652423978869,0.40000000000000002,N,1.1978268986314611,0.12333315203000809,0.13153341044116409
0.4709221545998849,0,N,0.39009867053210018,0.1721244931810432,0.26306682088232819
0.1140035934970277,0,Y,0.39569817297992949,0.077156760824408199,0.13153341044116409
0.1240247971029457,0.40000000000000002,N,0.27717537116754498,0.092872639830472004,0.13153341044116409
0.15503099637868209,0.80000000000000004,N,1.0923696025306775,0.22339638211545779,0.13153341044116409
0.058787753826796199,0,N,1.2738868068811409,0.0613551836584098,0.13153341044116409
0.23119152365967349,0,Y,0.25337748576427083,0.2624384947377516,0
0.85670128598859752,0,N,1.7232468783194337,0.35553615749992301,0.78920046264698474
0.52617520170924725,0.80000000000000004,Y,1.0984357301824927,0.44640551893380509,0.26306682088232819
0.48722211355913952,0,N,0.51188784877238513,0.35581033194371697,0
0.49338924659508349,0,N,2.0354191397859105,0.7416567874620551,0
0.15472093438592471,0,N,0.80586172728341787,0.098922303407887699,0
0.3445408863519831,0,N,0.93045065674761718,0.22548476199201761,0
0.19355309835885701,0,Y,1.2757533076970835,0.1417925655139067,0.65766705220582056
0.27905579348162779,0,N,0.40923030389551668,0.2127413934002543,0
0.0248049594205891,0,N,1.923429090829327,0.083549515381544398,0.39460023132349231
0.067271049948637696,0,N,1.2449560442340235,0.094203236151822897,0.52613364176465638
0.27905579348162779,0.40000000000000002,Y,0.83245936391060615,0.29798137770687833,0.26306682088232819
0.43408678986031002,0.40000000000000002,Y,0.89592039165267068,0.092872639830472004,0.52613364176465638
0.1240247971029457,0,N,0.71300331169025033,0.18610388431974759,0.26306682088232819
0.86817357972062004,0,Y,1.0485068333560159,0.27001200436009559,0.13153341044116409
0.093018597827209296,0.80000000000000004,N,0.53475248376768769,0.19853474177998279,0
0.58601716631141854,0.40000000000000002,N,0.48435696173722492,0.5933379602489034,0.65766705220582056
0.37207439130883718,0,Y,0.39663142338790092,0.53831079137145643,0.39460023132349231
0.310303841111715,0,N,2.053617522741356,0.32804808112969169,0.26306682088232819
0.291228827317282,0.80000000000000004,N,0.46382545276185128,0.45560140138025368,0
0.96880419947002261,0,N,1.6616523513933124,0.2668669788509922,0
0.34106819203310068,0.40000000000000002,N,0.99717806091758165,0.35764937418001469,0.13153341044116409
0.1212900503268257,0,Y,0.24684473290847009,0.1217569473181746,0.39460023132349231
0.1976366148034715,0,N,0.68920542628697634,0.10964083853933509,0
0.54459288407903461,0,N,1.2192916580148063,0.26590982960256748,0.26306682088232819
0.54459288407903461,0,N,1.1390321229292544,0.25138611716603698,0.13153341044116409
0.43408678986031002,0.80000000000000004,N,0.82499336064683404,0.2482580224509327,0
0.44028802971545727,0.40000000000000002,Y,1.1040352326303218,0.14135288696489531,0.26306682088232819
0.4718399380984466,0.40000000000000002,N,0.1978490864899646,0.63626751742641752,0.13153341044116409
0.0040928183043972,0,N,0.3266376427900361,0.016527438343094,0.13153341044116409
0.52402957271936623,0.40000000000000002,Y,0.79979559963160274,0.26143182105225421,0.13153341044116409
0.063761148190624395,0.40000000000000002,Y,0.44796019582633528,0.050299524346889203,0.26306682088232819
0.29145827319192241,0.40000000000000002,N,0.7148698125061933,0.25820273825311918,0.26306682088232819
0.66663328442833325,0,Y,1.1702960115963008,0.27933512880902323,0.13153341044116409
0.1085216974650775,0,N,1.4782686462269059,0.14556858008571361,0.26306682088232819
0.37958719339334812,0,N,0.81659410697509027,0.49347983890133013,0.26306682088232819
0.16887216373537081,0,N,1.1245667416056959,0.1370142031863468,0.26306682088232819
0.55871930846906015,0,N,1.0041774389773683,0.2360708341712946,0.26306682088232819
0.33176013101052459,0.40000000000000002,Y,0.41949605838320347,0.1243027569726966,0
0.1240247971029457,0,N,2.2332682262758761,0.1239497461885624,0.13153341044116409
0.27905579348162779,0.80000000000000004,N,0.6784730465953035,0.27588214185312271,0
0.51773221364646416,0,Y,0.74753357678519705,0.48852396428426259,0.13153341044116409
0.031006199275736401,0,N,1.5827926919197179,0.092872639830472004,0.26306682088232819
0.35656509043111378,0,N,1.917362963177512,0.26601208563152329,0
0.35656509043111378,0,N,1.9224958404213557,0.4657901592880152,0
0.093018597827209296,0,Y,1.186161268531817,0.14881138652403739,0.39460023132349231
0.58911778623899214,0,N,1.281352810144913,0.74549135125540111,0.39460023132349231
0.15503099637868209,0,Y,1.2547551735177245,0.089143390050900995,0.13153341044116409
0.38225682715098902,0,Y,0.95704829337480557,0.39728085743747188,0
0.1637747445744398,0,N,1.5249311666254828,0.1167771309175223,0.26306682088232819
0.74414878261767436,0.80000000000000004,N,0.66167453925181596,0.46579761778757428,0
0.32816961313439441,0,Y,0.83012623789067741,0.086040654234297895,0.26306682088232819
0.21685425711457301,0,N,1.4787352714308919,0.18596172531815039,0.52613364176465638
0.3445408863519831,0.40000000000000002,N,0.88332151114505475,0.22548476199201761,0.26306682088232819
0.48320060951307647,0.80000000000000004,Y,0.66960716771957418,0.27451194089911279,0.78920046264698474
1.1372267733158952,0.40000000000000002,N,0.36956716155672648,0.54005846698815452,0.26306682088232819
0.18660770972109211,0,N,1.0676384667194323,0.20902832856472661,0.13153341044116409
0.50775751933945978,0.40000000000000002,Y,0.43582794052270529,0.2156395425739501,0.52613364176465638
0.2480495942058914,0.40000000000000002,N,0.49508934142889749,0.14881138652403739,0.13153341044116409
0.71190233537090841,0.40000000000000002,Y,0.71953606454605101,0.32456078507581931,0
1.0529767286438645,0,N,0.99671143571359599,0.47373346131850141,0
0.85670128598859752,0.40000000000000002,Y,0.27904187198348801,0.71143084507365395,0.13153341044116409
0.83190562842779114,0,N,1.5538619292725999,0.76842765451467898,0
0.54459288407903461,0,Y,0.41949605838320347,0.2608859334695206,0
0.093018597827209296,0,Y,1.4801351470428492,0.1189773882874692,0
0.48902977497691491,0,N,1.9868901185713912,0.20140581660027901,0.26306682088232819
0.43408678986031002,0.80000000000000004,N,1.5314639194812836,0.37256637329829878,0.13153341044116409
0.19769552658209541,0,N,1.1124344863020657,0.12055105710945251,0.39460023132349231
0.2318767606636673,0,N,1.7703760239219957,0.35095328244580809,0.65766705220582056
0.13425684286393871,0,N,2.1838059546533843,0.198410408592332,0.39460023132349231
0.74414878261767436,0,N,1.644387218845839,2.0714468450106529,0
0.20588116319088989,0,N,0.3271042679940217,0.21880657065675299,0.13153341044116409
0.17983595579927131,0.40000000000000002,N,0.44982669664227831,0.2814069508165617,0
0.1271254170305193,0,Y,0.2799751223914595,0.12643588784661119,0.39460023132349231
0.31021082251388782,0.40000000000000002,Y,0.89172076481679852,0.22147731017889061,0.26306682088232819
0.16495298014691781,0.40000000000000002,N,0.78486359310405818,0.1174856883756408,0
1.0131554669140359,0.40000000000000002,N,0.3471691517654098,1.1413308536530686,0
0.43408678986031002,0,Y,0.51468759999629976,0.2482580224509327,0.13153341044116409
0.79065808153127892,0.40000000000000002,Y,0.21651409464939539,0.39494187197572489,0.39460023132349231
0.15503099637868209,0.40000000000000002,N,0.31030576065053422,0.34387986521890462,0.39460023132349231
0.27905579348162779,0,N,0.2095147165896088,0.14881138652403739,0.13153341044116409
0.53731882972894685,0.80000000000000004,Y,1.0998356057944505,0.28445352413148439,0.39460023132349231
0.35690305800321931,0,N,1.3023509443242722,0.3106782052613925,0
0.2599249685284985,0,Y,0.41762955756726039,0.23291842474762769,0.52613364176465638
0.68707257099089869,0,Y,0.96684742265850676,0.26538430372363031,0.39460023132349231
0.1175755076535925,0.40000000000000002,Y,0.39896454940782988,0.1187784701042268,0.52613364176465638
0.1100844099085746,0.40000000000000002,N,0.89405389083672726,0.084489286325996296,0.39460023132349231
0.71190233537090841,0,N,1.0396409544802865,0.35705269421528329,0.13153341044116409
0.19833115366724799,0,N,0.61267889283331067,0.22030856329797299,0.26306682088232819
0.71190233537090841,0,Y,1.4633366396993617,1.1910123667264876,0.26306682088232819
0.11991957631883821,0,N,1.4390721290921018,0.14486136515751569,0.26306682088232819
0.1116223173926511,0.40000000000000002,N,0.30377300779473349,0.1140050303863759,0.39460023132349231
0.27905579348162779,0.40000000000000002,Y,1.065771965903489,0.2127413934002543,0.26306682088232819
0.41002597922233852,0.40000000000000002,Y,0.88985426400085554,0.30275481742472921,0
0.21590236679680791,0,N,1.0429073309081869,0.29660901378799609,0.26306682088232819
0.3297664323970948,0,N,1.9416274737847721,0.2889193007425207,0
0.15503099637868209,0,Y,2.0400853918257686,0.22339638211545779,0
0.15503099637868209,0.40000000000000002,Y,1.1973602734274751,0.1115188887283271,0.39460023132349231
0.65618419527241001,0.40000000000000002,N,0.26690961667985802,0.3001917786362257,0.26306682088232819
0.1772221332003267,0.80000000000000004,Y,0.47969070969736738,0.2083457266850739,0.13153341044116409
0.26615721458292152,0,N,2.0228202592782951,0.14260591489083119,0.13153341044116409
0.15503099637868209,0.80000000000000004,N,0.57488225131046355,0.15395521532999529,0.78920046264698474
0.14572913659596121,0.40000000000000002,N,0.39989779981580131,0.094115747951994205,0
0.57606417634390716,0.80000000000000004,Y,0.87258913145338235,0.48640791337433842,0.26306682088232819
0.22521662905923909,0.40000000000000002,Y,0.4199626835871893,0.1662198974200528,0.39460023132349231
0.44074072022488298,0.80000000000000004,Y,0.2776419963715307,0.25181490630569198,0.52613364176465638
0.85670128598859752,0,Y,0.8221936094229193,1.0673256072323805,0.65766705220582056
0.54459288407903461,0,N,1.691982989652387,0.2304073717010513,0.13153341044116409
0.4928094306686272,0,N,0.65654166200797259,0.13227626592639741,0.39460023132349231
0.3036127033080111,0.40000000000000002,Y,0.25711048739615688,0.26794846128706779,0.26306682088232819
0.48933983696967231,0,N,1.2790196841249839,0.56858931618174946,0.39460023132349231
0.69332962200474235,0,N,1.9691583608199319,0.4974642439508194,0.52613364176465638
0.37728343278716081,0,N,1.2514887970898241,0.32701977779547281,0.39460023132349231
0.071314258334193706,0,Y,0.31590526309836348,0.040663142916477699,0
0.52710538768751936,0,N,1.186161268531817,0.67090635566398071,0.26306682088232819
0.15503099637868209,0,Y,1.0900364765107491,0.1275014090936302,0.26306682088232819
0.051603617454608099,0.40000000000000002,N,0.26317661504797191,0.094268423437969803,0.13153341044116409
0.47893415649273519,0,N,1.974291238063776,0.43773232813646112,0.26306682088232819
0.2325464945680232,0.80000000000000004,N,0.66120791404783041,0.12643588784661119,0
0.3445408863519831,0.80000000000000004,N,0.6864056750630616,0.18031608866185339,0.39460023132349231
0.25566471674801228,0.40000000000000002,N,0.850657746866051,0.11457187635287069,0.26306682088232819
0.43408678986031002,0.40000000000000002,Y,1.1422984993571546,0.27933512880902323,0.65766705220582056
0.056741344674597599,0,N,0.73166831984968084,0.084071610350684403,0.13153341044116409
0.85149534513020142,0,N,1.1530308790488275,0.84877963655022381,0.65766705220582056
0.84457166083192936,0,N,1.3560128427826357,0.42087955004259731,0.13153341044116409
1.1573497966458479,0,N,1.4698693925551625,0.317260778632309,0.65766705220582056
0.43408678986031002,0,Y,0.063461027742064094,0.1717605929875527,0.26306682088232819
0.15503099637868209,0.40000000000000002,N,1.1017021066103931,0.22339638211545779,0.26306682088232819
0.076746544447302806,0,N,1.9812906161235619,0.18478268570784109,0
0.1085216974650775,1.6000000000000001,N,0.58094837896227858,0.16745763542189249,0
0.27905579348162779,0,N,0.42742868685096153,0.2127413934002543,0.39460023132349231
0.52988974438248038,0.40000000000000002,Y,1.1273664928296101,0.269486925991132,0
0.35656509043111378,0,N,0.92951740633964564,0.2327157773146058,0.39460023132349231
0.15472093438592471,0.40000000000000002,Y,0.54315173743943146,0.098922303407887699,0.39460023132349231
0.58911778623899214,0,Y,1.5515288032526715,0.29798137770687833,0.26306682088232819
0.3445408863519831,0.40000000000000002,Y,0.42882856246291889,0.36099078198251028,0.13153341044116409
0.43408678986031002,0,N,1.9224958404213557,0.37256637329829878,0
0.0217043394930155,0.80000000000000004,Y,0.40503067705964479,0.078887953157080595,0
0.31006199275736429,0.40000000000000002,N,0.32057151513822119,0.14881138652403739,0
0.32629683869813991,0,N,1.6079904529349494,0.21451330914051961,0
0.79995994131399994,0.40000000000000002,Y,0.4017643006317444,0.57074937223907252,0
0.0303302641315253,0,N,1.8497023085995761,0.058659010652775602,0
0.40561689768532883,0.80000000000000004,Y,0.88518801196099783,0.2997245036388454,0.26306682088232819
0.58680472377302229,0.80000000000000004,N,0.57581550171843499,0.22827767173693389,0.39460023132349231
0.36408719437540749,0,N,1.2346902897463363,0.2372393572972254,0.13153341044116409
0.33323602609604969,0,N,1.7181140010755898,0.43773128394652278,0.13153341044116409
0.35159169606728569,0.80000000000000004,Y,1.4008088623652692,0.2187685323090014,0.26306682088232819
0.43408678986031002,0,N,0.31310551187444891,0.3192913551372854,0.39460023132349231
0.74414878261767436,0,N,1.7027153693440598,0.62118300040803509,0.13153341044116409
0.43408678986031002,0.40000000000000002,Y,0.73726782229750987,0.41400251510908598,0.39460023132349231
0.078730941200949894,0,N,2.089547663448259,0.17562223113429851,0.13153341044116409
0.1444888886249317,0,Y,0.0578615252942348,0.046547078633689197,0.26306682088232819
0.31936075192015762,0.80000000000000004,N,0.53801886019558809,0.42104289118294252,0.26306682088232819
0.54459288407903461,0.40000000000000002,Y,0.99391168448968115,0.17271587761108759,0
0.57361468660112391,0,N,0.3541685298251962,0.41518640274410862,0.26306682088232819
0.2821564134092015,0,N,1.3868101062456959,0.47045918001203813,0.13153341044116409
0.58911778623899214,0,N,0.37796641522847041,0.29798137770687833,0.13153341044116409
1.1310999483390096,0,N,0.72560219219786581,0.73528103828391356,0.52613364176465638
0.049721541158570901,0,N,0.46942495520968042,0.107524414704433,0.39460023132349231
0.74414878261767436,0,N,0.97478005112626476,1.3315163272715611,0.13153341044116409
0.1444888886249317,0.80000000000000004,Y,0.46755845439373739,0.084071610350684403,0.26306682088232819
0.74743233912097484,0,Y,0.33643677207373718,0.26714473337457462,0.26306682088232819
0.49977032240602998,0,Y,0.40643055267160211,0.51035171075406538,0.26306682088232819
0.2997679345978197,0,N,0.64394278150035678,0.39747776182583322,0
0.086569308377856105,0.40000000000000002,N,1.0494400837639877,0.112771916654263,0.52613364176465638
0.15472093438592471,0.40000000000000002,N,0.80306197605950314,0.1485627947337311,0.65766705220582056
0.58911778623899214,0.80000000000000004,N,0.42836193725893301,0.4258413914593121,0.39460023132349231
0.31006199275736429,0,Y,1.685450236796586,0.16372838564232139,0.52613364176465638
0.3478771533940524,0,N,1.7302462563792196,0.50597409360781809,0.26306682088232819
0.093018597827209296,0.40000000000000002,N,0.1311216823200001,0.065939177487458603,0
1.058250883140667,0.80000000000000004,N,0.5142209747923141,0.32716559146185409,0.26306682088232819
0.1240247971029457,0,N,0.18804995720626369,0.13282886615873421,0.13153341044116409
0.4719949690948253,0.40000000000000002,N,0.96824729827046419,0.48362641513374749,0.13153341044116409
0.093018597827209296,0,N,0.086325662737366707,0.19853474177998279,0.13153341044116409
0.1444888886249317,0.40000000000000002,Y,0.9472491640911046,0.1051791641030564,0
0.083716738044488301,0.40000000000000002,N,0.86885612982149596,0.091629531708949802,0.26306682088232819
0.1240247971029457,0.80000000000000004,Y,0.85485737370192305,0.1239497461885624,0.65766705220582056
0.68734542554452505,0,N,1.7153142498516754,0.5756364794902048,0.26306682088232819
0.18444037639171809,0,N,1.8786330712466932,0.20694293208799039,0
0.27905579348162779,0,N,1.6453204692538104,0.4968747241456648,0
0.22521662905923909,0,N,1.9336948453170135,0.20508822700261861,0
0.093018597827209296,0.80000000000000004,N,0.50115546908071251,0.099088031268091806,0.26306682088232819
0.13425684286393871,0,N,2.138543309866765,0.15865660594210479,0
0.056741344674597599,0,Y,0.80212872565153148,0.084071610350684403,0
0.89917977899635648,0,N,0.96778067306647841,0.55902886227685,0.26306682088232819
0.46509298913604641,0,Y,0.31030576065053422,0.12525826535121831,0.26306682088232819
0.85670128598859752,0,N,0.93745003480740363,0.14199931512168609,0
0.1012042344360037,0,N,1.8277709240122451,0.18671809175844289,0
0.54444405432251108,0,N,1.3914763582855538,0.28802428079542369,0.26306682088232819
0.43408678986031002,0.40000000000000002,Y,0.70180430679459183,0.18610388431974759,0.39460023132349231
0.4928094306686272,0,N,2.0256200105022097,0.314649259596671,0.52613364176465638
0.44865970351990608,0,N,1.4418718803160169,0.1534854044427649,0.39460023132349231
0.74414878261767436,0,N,1.3821438542058382,0.44359970598465132,0
1.0387076757371705,0,Y,0.28137499800341681,0.3672388416481992,0
0.40359529349255069,0,Y,2.002755375506907,0.52235541994454848,0
0.32816961313439441,0,Y,0.2664429914758723,0.2156395425739501,0
0.1240247971029457,0,N,1.3219492028916746,0.23271950656438539,0.39460023132349231
0.27771632567291599,0,N,1.4003422371612833,0.49472667627263178,0.26306682088232819
0.54459288407903461,0.80000000000000004,N,0.39009867053210018,0.8141095471995079,0.13153341044116409
0.27905579348162779,0,N,1.6686517294530987,0.2482580224509327,0.52613364176465638
0.73357566866464818,0,Y,1.0783708464111048,0.40835061331315931,0.9207338730881488
0.31936075192015762,0.40000000000000002,Y,0.69293842791886229,0.3367625920145933,0
0.49274431765014809,0,Y,0.86092350135373819,0.41959967151824851,0.26306682088232819
0.093018597827209296,0.40000000000000002,N,0.35976803227302551,0.024503035676671399,0.26306682088232819
0.19432205210089529,0,N,1.4498045087837748,0.77396148826258448,0
0.66278851571814201,0.40000000000000002,Y,0.51795397642420016,0.47647393781151709,0.13153341044116409
0.18603719565441859,0.40000000000000002,N,0.77319796300441412,0.098149901193542902,0.78920046264698474
0.37207439130883718,0,N,1.9126967111376545,0.62118300040803509,0.39460023132349231
0.1894695819142426,0,N,1.3714114745141659,0.21178200660196181,0
0.35058089397089659,0,N,0.69013867669494777,0.26189931980462122,0.65766705220582056
0.43408678986031002,0,N,1.4414052551120309,0.3192913551372854,0.52613364176465638
0.13425684286393871,0,N,1.6597858505773693,0.198410408592332,0
0.58911778623899214,0.40000000000000002,Y,0.440494192562563,0.33113023148751158,0.39460023132349231
0.098326859143215303,0,N,0.75639945566092648,0.1240849687855696,0.39460023132349231
0.14572913659596121,0,Y,0.9855124308179376,0.079855469719892602,0.78920046264698474
0.1240247971029457,0.80000000000000004,N,0.25804373780412859,0.18610388431974759,0.26306682088232819
0.18603719565441859,0,N,2.0092881283627078,0.1736730268595123,0.13153341044116409
0.50775751933945978,0,N,1.8249711727883304,0.51803694869980532,0
0.67506697063133358,0.80000000000000004,N,1.1576971310886852,0.36886956799180998,0.65766705220582056
0.48679732862906189,0,N,0.048529021214519602,0.35551840627097231,0.13153341044116409
0.16495298014691781,0,N,0.1745178262906763,0.1567671442487874,0
0.27905579348162779,0.40000000000000002,N,0.5394187358075454,0.14881138652403739,0.39460023132349231
0.33323602609604969,0,N,1.6453204692538104,0.67362587377323502,0
0.48933983696967231,0,Y,1.0718380935553042,0.10394851167579799,0
0.27905579348162779,0,N,0.70180430679459183,0.18610388431974759,0.13153341044116409
0.1240247971029457,0.80000000000000004,N,0.49508934142889749,0.2482580224509327,0.13153341044116409
0.39567631019752769,0,N,1.303284194732244,0.2049172036077275,0.13153341044116409
0.26975393369890688,0,N,1.6826504855726718,0.2063484150881312,0.39460023132349231
1.030500334788883,0,Y,1.610790204158864,0.8507879867265139,0
0.71466808834630402,0,Y,1.3578793435985788,0.59754455400025941,0.26306682088232819
0.15195518141052899,0,N,1.8231046719723876,0.19969192798658369,0.13153341044116409
0.16743347608897671,0.40000000000000002,N,0.6327437766046986,0.23831338123374191,0.39460023132349231
0.52617520170924725,0,Y,1.4246067477685431,0.60886521380111636,0.39460023132349231
0.074290853464664394,0.40000000000000002,N,0.84132524278633591,0.100957653352582,0.78920046264698474
0.73242223805159079,0,N,1.707381621383917,0.36692476423176368,0.39460023132349231
0.35656509043111378,0,Y,0.55155099111117534,0.2327157773146058,0
0.61826361355818449,0.80000000000000004,N,0.59821351150975188,0.34671021663160778,0.26306682088232819
0.1240247971029457,0.40000000000000002,N,1.1646965091484716,0.2190089943347881,0
0.093018597827209296,0,Y,0.73960094831743894,0.099088031268091806,0.39460023132349231
0.58911778623899214,0,Y,1.3578793435985788,0.1239497461885624,0.13153341044116409
0.2821564134092015,0,N,1.6989823677121734,0.1565806817598088,0.26306682088232819
0.2821564134092015,0,N,1.751711015762565,0.18796850920953309,0.39460023132349231
0.15472093438592471,0,N,0.88565463716498349,0.24784370280042239,0
0.95902174359852776,0.80000000000000004,Y,1.0158430690770124,0.2161412758392936,0.9207338730881488
0.27771632567291599,0.40000000000000002,N,1.3079504467721017,0.1764575830849224,0.26306682088232819
0.2393864621282506,0.40000000000000002,N,1.1073016090582222,0.22392615933914359,0.26306682088232819
0.27905579348162779,0,Y,0.36723403553679779,0.18610388431974759,0.26306682088232819
0.7241807902841001,0,Y,0.81612748177110461,0.3629598258661238,0.39460023132349231
0.34416261072081922,0,N,1.6812506099607143,0.56368110137686489,0
0.33670561979500457,0,N,1.4834015234707496,0.29448334141364069,0.13153341044116409
1.0418796099230785,0,Y,1.0452404569281155,0.7370163327913436,0.26306682088232819
0.4928094306686272,0,Y,1.3042174451402158,0.22069953784486321,0.26306682088232819
0.25479654316829159,0,Y,1.0872367252868345,0.1524180185708561,0.26306682088232819
0.53950786739781387,0,N,0.99064530806178075,0.45709601010691009,0.26306682088232819
0.40308059058457357,0,N,0.28790775085921749,0.34770473296282378,0.13153341044116409
1.0752546828234808,0,N,1.0242423227487565,0.53186053178271919,0.39460023132349231
0.39687935072942632,0,N,1.7260466295433481,0.1579910840264426,0.52613364176465638
0.70075870735120871,0,N,0.5678828732506771,0.48859989180977459,0.26306682088232819
0.062012398551472801,0,N,1.3396809606431339,0.074226390932616904,0.26306682088232819
0.043284654188927997,0.40000000000000002,N,1.1875611441437743,0.063464820258713195,0.26306682088232819
0.3117983399168055,0,Y,0.69433830353081971,0.27451194089911279,0.65766705220582056
0.26723312969778951,0,Y,0.39756467379587251,0.071382465050716007,0.39460023132349231
0.41002597922233852,0,Y,0.13718780997181521,0.4076786770878762,0.65766705220582056
0.15503099637868209,0,Y,0.2552439865802138,0.19421097500055259,0
0.12576114426238691,0,N,1.0382410788683289,0.15048209042528521,0.26306682088232819
0.59221840616656585,0.40000000000000002,Y,1.3308150817674045,0.29947307761870667,0.13153341044116409
0.43408678986031002,0,N,1.5711270618200739,0.48606526990459142,0
0.093018597827209296,0,N,0.1292551815040571,0.099088031268091806,0
0.062012398551472801,0,N,0.99717806091758165,0.089143390050900995,0.26306682088232819
0.71190233537090841,0,N,1.8749000696148077,0.25493516959625911,0.26306682088232819
0.093018597827209296,0,N,0.25944361341608568,0.13525049179559651,0.13153341044116409
0.37139535554469849,0.40000000000000002,N,1.2006266498553757,0.386830007855202,0
1.3669889111889573,0,Y,1.6373878407860525,0.61107017002578545,0.13153341044116409
0.15503099637868209,0,N,0.1861834563903205,0.17864538476060551,0.13153341044116409
0.074290853464664394,0.40000000000000002,N,0.63787665384854209,0.100957653352582,0
0.61367469606537539,0.40000000000000002,Y,0.80959472891530382,0.2581032418690003,0
1.153067840525869,0,N,1.8963648289981525,0.40653767582531869,0.39460023132349231
0.062012398551472801,0.40000000000000002,N,0.2277130995450537,0.22339638211545779,0
0.41002597922233852,0,Y,1.676117732716871,0.132253517502742,0.13153341044116409
0.31936075192015762,0,N,1.401275487569255,0.1401085854834436,0.13153341044116409
0.38035924775531388,0,N,1.8226380467684016,0.49440842209644331,0
0.15850369069756459,0,Y,1.9565594803123163,0.2395695417294926,0.52613364176465638
0.3445408863519831,0.80000000000000004,N,0.6024131383456236,0.60189039793838472,0.13153341044116409
0.56703517111481261,0.40000000000000002,N,0.71673631332213639,0.31932596257523982,0.13153341044116409
0.54459288407903461,0,N,1.401275487569255,0.27656056697302239,0.26306682088232819
0.30695827220986299,0,N,1.6275887115023513,0.40612589206465838,0
0.51494165571164785,0,Y,0.93605015919544643,0.2622954407162072,0
0.310303841111715,0,N,1.9756911136757325,0.148917148047786,0
0.21704339493015501,0,N,1.885165824102494,0.2127413934002543,0.13153341044116409
0.58911778623899214,0,N,1.2720203060651978,0.53239135319634334,0.13153341044116409
0.41002597922233852,0,N,1.4054751144051267,0.132253517502742,0.52613364176465638
0.43408678986031002,0,N,1.0489734585600017,0.44715136888971918,0.39460023132349231
0.59367569753252536,0.40000000000000002,N,1.6518532221096112,0.37530737188628338,0.26306682088232819
0.34044806804758598,0,N,1.1922273961836318,0.25493516959625911,0.78920046264698474
0.17731515179815391,0,N,0.55015111549921791,0.14281691584335929,0.26306682088232819
0.0122784549131916,0.40000000000000002,N,1.297684692284415,0.051701722264007897,0
0.30076013297464338,0,N,1.5067327836700379,0.1531143440896976,0.52613364176465638
0.3445408863519831,0,Y,0.36723403553679779,0.1669327808079156,0.13153341044116409
0.43408678986031002,0,N,0.85205762247800831,0.37256637329829878,0.9207338730881488
0.4928094306686272,0,Y,1.9630922331681171,0.21320605792278879,0.13153341044116409
0.2821564134092015,0,N,1.788107781673455,0.25074423869397722,0
0.0155030996378682,0,N,2.0774154081446299,0.052916413502209797,0
0.37958719339334812,0,N,1.4264732485844862,0.39471215018930339,0
0.13547538649547511,0.80000000000000004,N,0.46615857878178008,0.13313115914586629,0.78920046264698474
0.85550134607662653,0,Y,0.75919920688484122,0.21288959378649441,0.26306682088232819
0.3445408863519831,0,N,0.1964492108780074,0.28194560365472288,0.39460023132349231
0.3445408863519831,0,Y,1.2169585319948777,0.24379642259964959,0.13153341044116409
0.28653758936686308,0.40000000000000002,N,0.51935385203615747,0.3051803214813622,0.39460023132349231
0.33589635799390788,0,N,1.4316061258283297,0.24480227585019551,0.78920046264698474
0.43408678986031002,0,N,1.8893654509383664,0.2482580224509327,0.39460023132349231
0.87127419964819364,0,Y,1.9336948453170135,0.72311585257797484,0.13153341044116409
0.26355269384375968,0,N,0.96684742265850676,0.128470044431376,0.39460023132349231
0.20154029529228679,0.40000000000000002,Y,0.5062883463245561,0.22339638211545779,0.26306682088232819
0.1240247971029457,0,N,0.18665008159430629,0.1199397584855853,0.39460023132349231
0.0040928183043972,0.40000000000000002,N,0.49882234306078371,0.016527438343094,0
0.1240247971029457,0.80000000000000004,N,0.1731179506787191,0.18610388431974759,0.13153341044116409
0.037145426732332197,0,N,0.85205762247800831,0.16357921565113859,0
0.143825355960431,0,N,1.164229883944486,0.11979998620384689,0.39460023132349231
0.52617520170924725,1.2,Y,1.0671718415154463,0.3347144880356529,0.39460023132349231
0.35159169606728569,0,Y,1.1572305058846992,0.30641940201312251,0.13153341044116409
1.4548108700175533,0,N,1.7465781385187216,0.59532691832633977,0.13153341044116409
0.58911778623899214,0,N,1.223491284850678,0.29798137770687833,0.26306682088232819
0.27905579348162779,0,N,1.3998756119572977,0.2127413934002543,0
0.4709221545998849,0,N,0.88565463716498349,0.14168635648018449,0.13153341044116409
0.54671060748956746,0.40000000000000002,N,0.18851658241024929,0.69448640202020817,0
0.36049667649927708,0,N,1.7428451368868356,0.31355972198107152,0.39460023132349231
0.27905579348162779,0,Y,0.49648921704085491,0.2482580224509327,0.52613364176465638
0.74811757612496854,0.40000000000000002,Y,0.60987914160939594,0.4681843376464998,0.26306682088232819
0.55871930846906015,0,Y,1.1306328692575107,0.47250034758638859,0.26306682088232819
0.14535706220465239,0,N,0.75873258168085522,0.070347971161863004,0.39460023132349231
0.58911778623899214,0,Y,1.1073016090582222,0.29798137770687833,0.9207338730881488
0.093018597827209296,0,Y,0.34343615013352358,0.074226390932616904,0.13153341044116409
1.6666452234693845,0,Y,1.4535375104156605,0.4080091632033418,0.13153341044116409
0.1240247971029457,0,Y,0.47175808122960922,0.18610388431974759,0.13153341044116409
0.1444888886249317,0,N,2.1348103082348788,0.13581912780198549,0.52613364176465638
0.1240247971029457,0,N,0.65980803843587299,0.13776176859715961,0
0.43408678986031002,0.40000000000000002,Y,0.8221936094229193,0.44715136888971918,0
0.158435477059158,0,N,1.4003422371612833,0.22749109837342679,0.13153341044116409
0.7241807902841001,0,N,0.61314551803729644,0.25915459196685697,0.52613364176465638
0.37728343278716081,0,Y,1.9817572413275475,0.49070900631510878,0
0.20464091521986039,0,Y,0.96264779582263516,0.28306437858859418,0.39460023132349231
0.2027402352042578,0,N,1.481068397450821,0.28077834847371719,0
0.0255708125426998,0,N,0.71533643771017896,0.079697424114234305,0.52613364176465638
0.1085216974650775,0.40000000000000002,N,0.92718428031971678,0.1338943874057533,0.26306682088232819
0.15472093438592471,0,N,1.7867079060614974,0.17834704477823979,0.52613364176465638
0.54459288407903461,0,N,0.5487512398872606,0.69193932442076123,0
0.096119217754782896,0,N,0.62107814650505444,0.050607784133668503,0.13153341044116409
0.1444888886249317,0,N,2.2127367173005017,0.093452761926182099,0.26306682088232819
1.0215364425782676,0.40000000000000002,Y,1.1394987481332404,0.45998267319128489,0.26306682088232819
0.41002597922233852,0,N,0.66820729210761676,0.35327369624365279,0.13153341044116409
0.143825355960431,0,N,0.98411255520597996,0.10747600904229419,0.26306682088232819
0.18541707166890381,0,N,2.0718159056968002,0.1573999979363806,0.52613364176465638
0.31006199275736429,0,N,1.0396409544802865,0.75930337366399836,0.13153341044116409
0.27905579348162779,0.40000000000000002,Y,1.2855524369807847,0.4968747241456648,0.13153341044116409
0.1403960703205345,0,N,1.2687539296372974,0.091264885665503295,0
0.1085216974650775,0.40000000000000002,Y,0.91738515103601559,0.041595455361370402,0.13153341044116409
0.75070659376449256,0.80000000000000004,N,0.63461027742064169,0.62644124259723033,0.13153341044116409
0.0155030996378682,0,N,1.3938094843054825,0.044392392696048701,0.13153341044116409
0.18603719565441859,0.80000000000000004,Y,0.1101235481406407,0.1156625327434041,0
0.18603719565441859,0,N,1.1371656221133113,0.14881138652403739,0.26306682088232819
0.71190233537090841,0,Y,1.2192916580148063,0.2974841195412703,0.13153341044116409
0.24184835435074409,0.40000000000000002,N,0.2426451060725982,0.25208289019485203,0.39460023132349231
0.38953088150107668,0.80000000000000004,Y,0.45915920072199351,0.1682407778756024,0.39460023132349231
0.70692894100708026,0.80000000000000004,Y,0.58981425783800812,0.17539318061283721,0.39460023132349231
0.37016440943345169,0,N,1.6359879651740954,0.64298173331455277,0.13153341044116409
0.66278851571814201,0,Y,1.2990845678963721,0.33342416761192128,0.78920046264698474
0.14262851666838749,0.80000000000000004,N,0.28930762647117481,0.13886674530684651,0.26306682088232819
0.34044806804758598,0,Y,0.77786421504427172,0.35705269421528329,0
0.43408678986031002,0,Y,0.67987292220726092,0.27933512880902323,0.52613364176465638
0.50775751933945978,0,N,0.88378813634904041,0.32363861619032702,0.26306682088232819
0.1444888886249317,0.80000000000000004,N,0.71300331169025033,0.14035844521867491,0
0.1240247971029457,0,N,1.4526042600076892,0.17722468976458011,0.52613364176465638
0.093018597827209296,0,Y,1.4064083648130985,0.19853474177998279,0.13153341044116409
0.63301636317357979,0,N,1.1763621392481158,0.45601206636598007,0
0.093018597827209296,0,N,0.76106570770078419,0.082513604377775204,0.39460023132349231
0.27905579348162779,0,Y,0.83152611350263483,0.33113023148751158,0
0.12325584336090741,0,Y,2.1460093131305373,0.2850839165142231,0
0.062012398551472801,0,N,0.84505824441822197,0.074226390932616904,0.13153341044116409
0.22664911546577809,0,N,0.30004000616284748,0.30953459352398932,0.13153341044116409
0.074290853464664394,0,N,0.10919029773266919,0.072010172373613401,0
0.27270572386995701,0,Y,0.11245667416056949,0.31728270662101288,0
0.093018597827209296,0,N,0.11152342375259799,0.12935439872410351,0.39460023132349231
0.52617520170924725,0,N,1.3961426103254115,0.66978758073010924,0.26306682088232819
0.58911778623899214,0,Y,1.1539641294567988,0.4258413914593121,0
0.16495298014691781,1.2,N,0.89592039165267068,0.1174856883756408,0
0.28688175817882372,0,N,1.6476535952737394,0.1908101975415662,0
0.093018597827209296,0.40000000000000002,N,0.61921164568911147,0.16538581341435399,0.13153341044116409
0.31006199275736429,0,Y,1.3060839459561586,0.27311973737140333,0.26306682088232819
1.3363671887842401,0.40000000000000002,N,0.53288598295174472,0.54784111293813686,0.26306682088232819
0.093018597827209296,0.40000000000000002,N,0.4199626835871893,0.17513548945306889,0
0.29225203189338128,0,Y,1.5179317885656964,0.51803694869980532,0.26306682088232819
0.34612840375490089,0.40000000000000002,Y,0.66587416608768801,0.36251828269222269,0.13153341044116409
0.74414878261767436,0,N,0.73540132148156701,0.74549135125540111,0
0.27905579348162779,0,Y,1.5888588195715323,0.13525049179559651,0
0.1795879062050654,0.40000000000000002,N,0.94631591368313317,0.1685018253601723,0
0.66673870550587067,0,N,1.7587103938223514,0.23941507620362279,0.26306682088232819
0.093018597827209296,0.40000000000000002,Y,0.28090837279943098,0.1189773882874692,0
1.2092417717537207,0,Y,1.4274064989924575,0.5963213600725602,0.65766705220582056
0.56761808766119648,0,Y,1.6709848554730278,0.47963559577463738,0.65766705220582056
0.25633445065236821,0,N,1.4204071209326712,0.16822533878151499,0.26306682088232819
0.0040928183043972,0.40000000000000002,N,1.3499467151308209,0.084071610350684403,0
0.16158880752550039,0,N,1.4619367640874044,0.11546257037022351,0.39460023132349231
0.32703788686083002,0,Y,1.6261888358903942,0.1718954426595819,0
0.48933983696967231,0,Y,1.202026525467333,0.15610206984309871,0.39460023132349231
0.34044806804758598,0,N,1.6504533464976536,0.2974841195412703,0.39460023132349231
0.4000047756164205,0,N,1.79417390932527,0.29586741517683068,0.26306682088232819
0.71190233537090841,0,N,1.6467203448657679,0.6378758682713509,0.26306682088232819
0.58911778623899214,0,Y,0.7498667028051258,0.29798137770687833,0.26306682088232819
0.58911778623899214,0,Y,1.5571283057005003,0.37256637329829878,0
0.34044806804758598,0.80000000000000004,Y,0.94258291205124722,0.18975377566400931,0.78920046264698474
0.41002597922233852,0.40000000000000002,Y,0.42509556083103273,0.30275481742472921,0.13153341044116409
0.27905579348162779,0,N,1.006510564997297,0.2482580224509327,0.26306682088232819
0.15813161630625569,0.80000000000000004,Y,0.90711939654832885,0.30295373560797151,0
0.32816961313439441,0,N,0.24544485729651269,0.34523843091360229,0
0.34863370465638038,0,N,0.32197139075017839,0.45625073835187258,0.39460023132349231
0.85670128598859752,0,N,1.6873167376125291,0.3046940273101062,0
0.168034996354926,0,Y,0.32383789156612153,0.11933912551608759,0.52613364176465638
0.093018597827209296,0.80000000000000004,N,0.83712561595046386,0.1189773882874692,0.13153341044116409
0.52617520170924725,0,N,1.2248911604626356,0.3347144880356529,0
0.55994095272052413,0.40000000000000002,N,0.95284866653893396,0.94731834932578485,0
0.12325584336090741,0.40000000000000002,N,1.2122922799550195,0.073856449354483406,0
0.52617520170924725,0,N,0.34576927615345249,0.3347144880356529,0.65766705220582056
0.4804472590173911,0,N,1.6779842335328139,0.81983767486092907,0
0.68734542554452505,0.40000000000000002,Y,0.4759577080654811,0.1724399131273994,0.13153341044116409
0.35715110759742519,0,N,1.5160652877497534,0.31087712344463497,0
0.58551176526322402,0,N,0.50022221867274097,0.44904314271790008,0.13153341044116409
0.89917977899635648,0,Y,0.73166831984968084,0.1239497461885624,0.26306682088232819
0.77515498189341081,0,Y,0.90618614614035742,0.48444386668542949,0.78920046264698474
0.15503099637868209,0,N,0.97571330153423641,0.17864538476060551,0
0.95902174359852776,0,N,1.6210559586465507,0.62635166601752501,0
0.1323096535494224,0.40000000000000002,N,0.1777842027185767,0.1960684397307613,0
0.071066208739987896,0,N,2.0134877551985801,0.16333062386083241,0.26306682088232819
0.34612840375490089,0.80000000000000004,N,0.89545376644868457,0.50363704735595649,0
1.0072301822324428,0,Y,1.7876411564694692,0.58044691336586896,0.39460023132349231
1.0542107753750387,0,Y,0.76759846055658498,0.45761944760597068,0.13153341044116409
0.26975393369890688,0,N,1.788107781673455,0.24614033067110561,0
0.31718101611107341,0,N,0.89125413961281286,0.23894414654145851,0.52613364176465638
0.42959709220518327,0,N,2.045684894273597,0.4100025217955181,0
1.3642727681324027,0,N,0.81286110534320433,0.95859134931445877,0.13153341044116409
0.31066971426316869,0.40000000000000002,N,0.29024087687914629,0.39102086417248838,0.52613364176465638
0.4928094306686272,0.40000000000000002,N,1.167962885576372,0.314649259596671,0.39460023132349231
0.38342266024375671,0,Y,1.0769709707991475,0.28447082785046163,0
0.15503099637868209,0,N,1.7755089011658389,0.22339638211545779,0.26306682088232819
0.73645924519729167,0.40000000000000002,N,0.70413743281452057,0.61501735716247474,0
0.093018597827209296,0,N,0.76293220851672727,0.084881379647820401,0.13153341044116409
0.031006199275736401,0.40000000000000002,N,0.45029332184626403,0.078151948420584497,0.26306682088232819
0.0779619874589116,0,N,1.5897920699795045,0.073271031724086402,0
0.41002597922233852,0.40000000000000002,Y,0.28510799963530281,0.2118207907996694,0.9207338730881488
0.2325464945680232,0,N,0.18665008159430629,0.078887953157080595,0.52613364176465638
0.2954270666992167,0,N,1.2538219231097529,0.1424106513723728,0.13153341044116409
0.90228039892392997,0.40000000000000002,N,0.88378813634904041,0.74797749291344984,0.52613364176465638
0.82166428080701537,0,Y,1.2612879263735253,0.20475013321760269,0.26306682088232819
0.31936075192015762,0,N,1.6042574513030632,0.3367625920145933,0.65766705220582056
0.3445408863519831,0.40000000000000002,N,0.2295796003609967,0.39241247102023308,0.39460023132349231
0.19432205210089529,0.40000000000000002,N,0.33130389482989381,0.36099078198251028,0.39460023132349231
0.89917977899635648,0,Y,0.72653544260583747,0.27933512880902323,0.26306682088232819
0.59350826405643642,0,N,1.0592392130476886,0.35732261731432868,0.52613364176465638
0.15472093438592471,0,Y,0.44142744297053449,0.15920003221998391,0.78920046264698474
0.2954270666992167,0.40000000000000002,N,1.1516310034368702,0.1566875620584913,0
0.59221840616656585,0,Y,0.16191894578306071,0.21380691464727331,0.13153341044116409
0.14262851666838749,0,N,0.71440318730220775,0.1667117854659782,0.52613364176465638
0.53231442916584304,0,N,0.93745003480740363,0.33014391950581062,0
0.43408678986031002,0,N,1.5067327836700379,0.37256637329829878,0.52613364176465638
0.168034996354926,1.2,N,0.87725538349323973,0.3188353424742395,0
0.15852849565698521,0,N,0.75686608086491225,0.0597498907982957,0.26306682088232819
0.49456128092770629,0,N,0.7293351938297522,0.15767208400029811,0
0.2719863800467599,0.40000000000000002,N,0.88005513471715446,0.161606890027719,0.26306682088232819
0.15935636117764729,0.40000000000000002,Y,0.62061152130106845,0.41592740467530931,0
0.18603719565441859,0,Y,1.8790996964506792,0.074226390932616904,0.26306682088232819
0.83419078531441282,0,N,1.5510621780486855,0.37804501414946651,0.26306682088232819
0.1218419606739338,0,N,2.0330860137659821,0.1667660087577732,0
0.37207439130883718,0,N,1.8263710484002875,0.16974754395654021,0.39460023132349231
0.19769552658209541,0.40000000000000002,Y,0.56368324641480505,0.1096691808376599,0.26306682088232819
0.15503099637868209,0.40000000000000002,Y,0.77086483698448538,0.1115188887283271,0.65766705220582056
0.8211929865780242,0.40000000000000002,N,1.050839959375945,0.29249192203134972,0.13153341044116409
0.13642727681324029,0.80000000000000004,Y,0.71253668648626467,0.1338943874057533,0.26306682088232819
0.51389674679605557,0,Y,1.4157408688928137,0.1634859844066493,0.13153341044116409
0.4776132924035888,0.40000000000000002,N,1.0933028529386497,0.61138007068246791,0
0.13425684286393871,0,Y,0.77459783861637144,0.060801091726161202,0.13153341044116409
0.2821564134092015,0,Y,1.2370234157662654,0.12519277972508899,0.39460023132349231
0.76497564667118656,0,Y,0.68593904985907594,0.31876202542357313,0
0.093018597827209296,0,N,0.51375434958832811,0.099088031268091806,0
1.1570273321733806,0,Y,1.3578793435985788,0.57120113355736979,0.39460023132349231
0.41796046561699951,0.80000000000000004,N,0.88332151114505475,0.2156380508740382,0.13153341044116409
0.52617520170924725,0.40000000000000002,N,0.50675497152854165,0.38258209401628829,0.52613364176465638
0.43408678986031002,0,N,1.5244645414214972,0.20305504002279651,0.13153341044116409
0.45250447223009738,0,N,1.114300987118009,0.58118060596750187,0
0.25879014163500652,0,Y,0.21278109301750911,0.14190697889714399,0.13153341044116409
0.60046605517391172,0,N,0.070927031005836402,0.50597409360781809,0.39460023132349231
0.87307255920618643,0.40000000000000002,N,1.0536397105998592,0.65865636681805451,0.13153341044116409
0.42689955286819431,0,N,0.76946496137252796,0.55038446128780438,0.26306682088232819
0.3478771533940524,0.40000000000000002,Y,1.0667052163114608,0.15154119736268329,0.39460023132349231
0.1240247971029457,0.80000000000000004,N,1.3238157037076177,0.15833290706123809,0.26306682088232819
0.86817357972062004,0.40000000000000002,N,0.33876989809366592,0.48030022267035249,0.39460023132349231
0.78568468716745077,0,Y,0.32477114197409301,0.65448773682945438,0
0.13952789674081389,0.40000000000000002,N,1.3807439785938811,0.20475013321760269,0.26306682088232819
0.061541104322481603,0.80000000000000004,Y,0.90571952093637143,0.11095204276183231,0.13153341044116409
0.82166428080701537,0.40000000000000002,N,1.1768287644521014,0.20475013321760269,0.26306682088232819
0.89917977899635648,0,Y,1.1889610197557312,0.44715136888971918,0
0.15472093438592471,0.40000000000000002,Y,0.76013245729281254,0.2974841195412703,0.39460023132349231
0.66278851571814201,0.40000000000000002,N,0.49555596663288343,0.47647393781151709,0.26306682088232819
0.1240247971029457,0,N,0.1418540620116728,0.1239497461885624,0
0.27905579348162779,0,N,0.77413121341238533,0.18610388431974759,0.13153341044116409
0.093018597827209296,0,N,0.1040574204888258,0.1189773882874692,0.13153341044116409
0.58911778623899214,0,Y,1.4344058770522443,0.29798137770687833,0.13153341044116409
1.2092417717537207,0,Y,1.3914763582855538,0.58462173390910321,0
0.15503099637868209,0,N,0.89872014287658497,0.29798137770687833,0.26306682088232819
0.3478771533940524,0.80000000000000004,Y,0.348569027377367,0.60724060342714414,0
0.69691393864101747,0.80000000000000004,N,0.73680119709352421,0.70004223834181301,0
0.19355309835885701,0,N,1.7115812482197892,0.21571114416971779,0
0.55589154309511302,0,N,1.5995911992632057,0.2819963214517251,0.52613364176465638
0.34416261072081922,0.40000000000000002,N,1.8898320761423519,0.8004076122444036,0.26306682088232819
0.081310656980691204,0,N,1.2211581588307494,0.084071610350684403,0.13153341044116409
0.24323743207829709,0,Y,0.7004044311826344,0.18812409351033679,0
0.15813161630625569,0.40000000000000002,N,0.24404498168455549,0.2524016664660097,0
0.34106819203310068,0.40000000000000002,Y,1.2720203060651978,0.22339638211545779,0.52613364176465638
0.58911778623899214,0,N,0.70647055883444965,0.14881138652403739,0.26306682088232819
0.168034996354926,0.40000000000000002,Y,0.3201048899342353,0.1769713991195517,0.39460023132349231
0.46509298913604641,0,N,1.0242423227487565,0.39742801363377372,0.26306682088232819
0.43408678986031002,0,N,1.9686917356159459,0.74549135125540111,0.13153341044116409
0.2226679194787736,0,Y,2.1539419415982954,0.2437252685138554,0
0.26943146922643929,0,Y,1.3023509443242722,0.1200911660266358,0
0.27905579348162779,0,N,1.9285619680731705,0.18610388431974759,0.39460023132349231
0.67506697063133358,0.40000000000000002,N,0.44609369501039209,0.56579126007213731,0.26306682088232819
0.3237512297376019,0.40000000000000002,N,0.76199895810875562,0.26631773494345701,0
0.21704339493015501,0,Y,1.6625856018012839,0.66261914221882223,0
0.31006199275736429,0,Y,1.2916185646325999,0.21554534172451811,0.26306682088232819
0.3445408863519831,0,N,1.2482224206619237,0.36099078198251028,0.26306682088232819
0.82474319639509597,0,Y,1.2300240377064788,0.41134012910645468,0.13153341044116409
0.34863370465638038,0,N,0.43722781613466261,0.13010121828496041,0.52613364176465638
0.52749916641832106,0,N,1.7764421515738107,0.44746708717605771,0.26306682088232819
0.3544132602013777,0,N,0.064394278150035594,0.26453321433893667,0.13153341044116409
0.31365251063349447,0,N,1.3756111013500376,0.23651908999479909,0.13153341044116409
0.52448226322879199,0,N,1.2603546759655535,0.38141856808506219,0.13153341044116409
1.4548108700175533,0,N,1.5435961747849134,0.47618976897831372,0.13153341044116409
0.37207439130883718,0,N,1.701782118936088,0.31241715443360651,0.13153341044116409
0.33894426738271272,0,N,1.4866678998986502,0.32923801014935727,0
0.74414878261767436,0,N,1.897298079406124,0.53239135319634334,0.13153341044116409
0.15753629728016161,0,N,1.6845169863886149,0.12922320371685819,0
0.15472093438592471,0,N,1.6238557098704651,0.083936536923668301,0
0.093018597827209296,0,N,0.52821973091188701,0.059309391814332799,0.26306682088232819
0.1093898710447981,0.40000000000000002,N,0.76713183535259899,0.2594266780307744,0.13153341044116409
0.66476671123193387,0.40000000000000002,Y,0.99111193326576685,0.22279768835584551,0.39460023132349231
0.89917977899635648,0,Y,1.9602924819442025,0.36053655935935858,0.78920046264698474
0.1648537603092354,0,N,1.508599284485981,0.11742602037916761,0
0.52617520170924725,0.40000000000000002,Y,1.2374900409702512,0.38258209401628829,0.39460023132349231
0.093018597827209296,0,N,0.049928896826476901,0.084881379647820401,0
0.33535374950658248,0.40000000000000002,N,1.7904409076933836,0.2933993976727105,0.39460023132349231
0.4862082108428229,0,N,1.6588526001693975,0.49730231992539031,0.26306682088232819
0.37728343278716081,0,N,0.24731135811245589,0.39249548412032631,0.26306682088232819
0.15813161630625569,0,N,1.2785530589209984,0.12963237700267269,0
0.3228303456191125,0,Y,2.025153385298224,0.42521592168628242,0.26306682088232819
0.2065726014347388,0,N,1.1213003651777953,0.1266397286395626,0
0.63823160589175865,0,Y,1.8655675655350921,0.40210203155250129,0.13153341044116409
0.48933983696967231,0,Y,1.4628700144953759,0.41686986067960258,0.39460023132349231
0.1240247971029457,0.80000000000000004,N,0.96684742265850676,0.2190089943347881,0.39460023132349231
0.093018597827209296,0.80000000000000004,N,0.4862234625531679,0.069022819545190198,0.13153341044116409
0.89607915906878277,0,N,1.5071994088740237,0.19699463620601559,0
1.0387076757371705,0,Y,1.5524620536606433,0.4674927109823806,0.65766705220582056
0.2535221883780589,0,N,0.32523776717807878,0.2277844411610879,0.26306682088232819
0.53950786739781387,0,Y,1.1870945189397879,0.45709601010691009,0
0.0152674525233726,0.80000000000000004,N,1.0811705976350197,0.073848468759955099,0.13153341044116409
0.58911778623899214,0,N,1.1894276449597174,0.5963213600725602,0
0.34017521349395952,0,N,2.0428851430496828,0.2786638638487004,0.26306682088232819
0.32816961313439441,0.80000000000000004,N,0.83059286309466307,0.2156395425739501,0.13153341044116409
0.72244444312465883,0,Y,0.54221848703145981,0.60377985963170211,0
0.068151626008068594,0,N,1.6509199717016398,0.1189028032918777,0.52613364176465638
0.29947647632462782,0.80000000000000004,N,0.69900455557067709,0.4412922699760396,0
0.64651336171830787,0,N,1.7708426491259814,0.40708244463311838,0
0.184499288170342,0,N,0.18478358077836329,0.1033205060129182,0.13153341044116409
0.99873448363089101,0,N,1.3191494516677602,0.27486666713814562,0.26306682088232819
0.1012042344360037,0,Y,2.1572083180261954,0.2048223314933352,0.13153341044116409
0.16495298014691781,0,N,2.1418096862946654,0.13432056607056261,0.39460023132349231
0.16052219427041509,0,Y,1.5099991600979383,0.20905913216790581,0
0.68734542554452505,0,Y,1.5141987869338105,0.43163768980670381,0.78920046264698474
0.38874022341954551,0,N,1.5174651633617109,0.33620618794748131,0.39460023132349231
0.32816961313439441,0,Y,0.26690961667985802,0.28763890012320281,0.13153341044116409
0.062012398551472801,1.6000000000000001,N,1.2664208036173683,0.044392392696048701,0.65766705220582056
0.67475690863857618,0.40000000000000002,Y,1.0116434422411404,0.24217046969575659,0.39460023132349231
0.37207439130883718,0,Y,1.8655675655350921,0.1935623838788896,0
0.20154029529228679,0,N,1.9220292152173692,0.22339638211545779,0
0.41403818140861881,0,N,1.6560528489454831,0.41139069773346559,0.39460023132349231
0.4000047756164205,0,Y,1.3200827020757315,0.29586741517683068,0.13153341044116409
0.1240247971029457,0,N,1.7554440173944512,0.1239497461885624,0.52613364176465638
0.074290853464664394,0.40000000000000002,N,0.82172698421893364,0.25293204036966033,0.13153341044116409
0.15472093438592471,0,N,2.0335526389699679,0.22302345713750071,0.26306682088232819
1.269083736355892,0,N,1.6098569537508924,0.44640551893380509,0.39460023132349231
0.52617520170924725,0,N,1.9392943477648432,0.83732412707733739,0
0.2027402352042578,0,N,1.7167141254636329,0.16029106153549519,0.26306682088232819
0.173634715944124,0,N,0.39569817297992949,0.16372838564232139,0.13153341044116409
0.89917977899635648,0.40000000000000002,N,0.25011110933637049,0.55902886227685,0.13153341044116409
0.61826361355818449,0.40000000000000002,Y,0.79372947197978772,0.4458727583102956,0
0.1444888886249317,0,N,1.7764421515738107,0.2107169328649163,0
0.1240247971029457,0,N,0.13018843191202861,0.14881138652403739,0.26306682088232819
0.1853860654696281,0,N,1.4404720047040591,0.2599057374574581,0
0.4928094306686272,0,N,0.76106570770078419,1.2596728523630949,0
0.52617520170924725,0,Y,1.125499992013667,0.44640551893380509,0.39460023132349231
0.019279654709652899,0,Y,1.3756111013500376,0.034201919333388502,0.78920046264698474
0.52988974438248038,0.40000000000000002,Y,0.29630700453096143,0.421274999689223,0.39460023132349231
0.58911778623899214,0.40000000000000002,N,0.74193407433736769,0.33113023148751158,0
0.25129904388998858,0,N,1.4750022697990059,0.16941176230638769,0.65766705220582056
0.047377472493325197,0,N,2.1189450512993631,0.1253419497162718,0.26306682088232819
0.27905579348162779,0,N,0.17685095231060519,0.37256637329829878,0.13153341044116409
0.58911778623899214,0,N,0.5487512398872606,0.29798137770687833,0.39460023132349231
0.34863370465638038,0,Y,1.1632966335365145,0.2279460668465344,0.65766705220582056
0.50775751933945978,0,N,0.74100082392939626,0.2352757581182901,0.65766705220582056
0.4148257388702225,0.80000000000000004,N,0.68313929863516132,0.71460324327613933,0
0.36767771225153772,0,Y,1.7316461319911771,0.19144715340391691,0.65766705220582056
0.3373970580388535,0,Y,0.37936629084042761,0.38494099367185808,0.26306682088232819
0.1240247971029457,0.80000000000000004,N,0.35276865421323889,0.2482580224509327,0.39460023132349231
0.062012398551472801,0,N,0.78159721667615789,0.089319186885509994,0
0.1177305386499712,0,N,1.6775176083288286,0.198410408592332,0
0.27905579348162779,0,Y,0.44889344623430671,0.13525049179559651,0.78920046264698474
0.67506697063133358,1.2,Y,0.63834327905252775,0.28271629041416901,0.26306682088232819
0.33894426738271272,0,N,0.13345480833992901,0.38655918973620967,0
1.061720476839622,0,Y,1.0461737073360871,0.3501133062254575,0.26306682088232819
0.23361310782310851,0,N,1.7951071597332413,0.25425666989136397,0.26306682088232819
0.27905579348162779,0,N,1.245889294641995,0.74549135125540111,0
0.15711461297001161,0,Y,1.0051106893853397,0.090145812391649704,0.26306682088232819
0.40855008413681349,0.40000000000000002,Y,1.0102435666291831,0.52831476109230302,0.13153341044116409
0.21685425711457301,0,N,1.8385033037039171,0.2381313938444988,0.26306682088232819
0.60772150580443396,0,N,1.8394365541118891,0.51179172326394884,0.39460023132349231
0.077515498189341003,0,N,0.35836815666106819,0.086657248392852201,1.0522672835293128
0,0,N,0.2244467231171533,0.024503035676671399,0.13153341044116409
0.093018597827209296,0,N,0.23144610117693989,0.059309391814332799,0
0.23119152365967349,0,N,1.568327310596159,0.31499794445106089,0.13153341044116409
0.33894426738271272,0,N,1.6975824921002165,0.26931135291150982,0.13153341044116409
0.081657926412579407,0,N,1.6392543416019956,0.18031608866185339,0
0.093018597827209296,0,N,1.6583859749654115,0.14881138652403739,0.26306682088232819
0.27905579348162779,0.40000000000000002,Y,0.35090215339729591,0.2127413934002543,0.13153341044116409
0.14455710226333829,0.40000000000000002,N,0.68080617261523224,0.084104427748744603,0
0.062012398551472801,0,N,1.648120220477725,0.044392392696048701,0.13153341044116409
0.48933983696967231,0.40000000000000002,N,1.0172429446889697,0.34733180798486668,0.78920046264698474
0.88156825780773818,0,Y,1.9444272250086865,0.7566019797086726,0.26306682088232819
0.85670128598859752,0,Y,2.0060217519348078,0.44450979210085789,0.26306682088232819
0.58911778623899214,0,N,0.37983291604441349,0.14881138652403739,0.13153341044116409
0.59340904421875407,0.40000000000000002,N,0.51888722683217148,0.37514701414576201,0.13153341044116409
0.74414878261767436,0,Y,1.2734201816771549,0.31041223516711358,0.13153341044116409
1.0542107753750387,0,N,0.34250289972555209,0.86979970210276714,1.3153341044116411
0.1177305386499712,0.40000000000000002,N,0.28930762647117481,0.059272099316537097,0
0.81168028464022823,0.80000000000000004,Y,0.62434452293295495,1.0131769004330091,0.13153341044116409
0.173634715944124,0.80000000000000004,Y,0.51282109918035679,0.2587261011671842,0.39460023132349231
1.0480095355198913,0,N,1.022375821932813,0.39895797564834051,1.0522672835293128
0.13425684286393871,0.80000000000000004,Y,0.84739137043815072,0.13215409570361869,0.52613364176465638
0.43408678986031002,0.40000000000000002,N,0.294907128919004,0.55902886227685,0.26306682088232819
0.66663328442833325,0.40000000000000002,Y,0.57814862773836395,0.27933512880902323,0.39460023132349231
0.093018597827209296,0.40000000000000002,N,0.23424585240085441,0.099088031268091806,0.52613364176465638
0.83468688450282469,0,Y,0.46009245112996511,0.2078827030324423,0.52613364176465638
0.093018597827209296,1.2,Y,0.59494713508185149,0.084881379647820401,0.13153341044116409
0,0.40000000000000002,Y,0.10919029773266919,0.0327902491218297,0.39460023132349231
0.0217043394930155,0.40000000000000002,N,0.394764922571958,0.090208911297919997,0
0.85670128598859752,0.40000000000000002,N,0.76573195974064168,0.42671508009767001,0.39460023132349231
0.18603719565441859,0.80000000000000004,N,0.75359970443701174,0.40125288137769299,0.26306682088232819
0.28094717163744781,0,N,1.3378144598271908,0.29980125159930898,0.26306682088232819
0.20964221516303669,0,Y,0.16425207180298951,0.088699310987149602,0.65766705220582056
0.80061727273864547,0.40000000000000002,N,0.40503067705964479,0.4759411771880076,0.26306682088232819
0.1240247971029457,0,N,0.52681985529992958,0.2660164115612676,0
0.50775751933945978,0.40000000000000002,N,1.0480402081520299,0.64763583703945748,0.65766705220582056
0.58296615630268611,0.40000000000000002,N,1.0629722146795748,0.70292815557623189,0
0.13952789674081389,0.40000000000000002,N,0.69993780597864874,0.1363805290638021,0.13153341044116409
0.1444888886249317,0,N,1.2734201816771549,0.1504096683945659,0.39460023132349231
0.43408678986031002,0.80000000000000004,N,0.97198029990235024,0.62118300040803509,0.13153341044116409
0.14535706220465239,0,N,0.2767087459635591,0.084489286325996296,0.52613364176465638
0.15503099637868209,0.80000000000000004,Y,0.60847926599743873,0.14881138652403739,0.52613364176465638
0.14262851666838749,0,N,1.5608613073323869,0.13886674530684651,0
0.72864568297980603,0,N,1.9257622168492561,0.3318836145279806,0.13153341044116409
0.73645924519729167,0.80000000000000004,N,0.78159721667615789,0.40989198683205158,0
0.37728343278716081,1.2,Y,1.1464981261930269,0.49070900631510878,0
1.4548108700175533,0,N,1.8011732873850563,0.2974841195412703,0.39460023132349231
0.85670128598859752,0,Y,1.7722425247379388,0.85378876485414346,0.52613364176465638
0.65662448330212553,0.40000000000000002,N,0.88612126236896949,0.41316298639870891,0
0.1918167511994158,0.40000000000000002,Y,0.43816106654263409,0.35697311202498722,0
0.62646785388654425,0,Y,1.2734201816771549,0.45151138397700691,0.13153341044116409
0.16495298014691781,1.2,Y,0.45822595031402208,0.1567671442487874,0.13153341044116409
0.63124900981486276,0.80000000000000004,N,0.91598527542405839,0.35365161841631459,0.13153341044116409
0.1240247971029457,0,N,1.5673940601881875,0.090377398802961001,0
0.27905579348162779,0,Y,0.64114303027644237,0.074226390932616904,0.39460023132349231
0.062012398551472801,0,N,0.59448050987786571,0.074226390932616904,0
0.28820882350782517,0.80000000000000004,Y,1.115700862729966,0.17027858912515109,0.39460023132349231
0.2204168694113551,0.40000000000000002,N,0.64067640507245638,0.25163925864107428,0.39460023132349231
0.8211929865780242,0,N,1.4535375104156605,0.31994665890855167,0.52613364176465638
1.1831345519635508,0.80000000000000004,N,0.94118303643929002,0.83409832601800871,0.13153341044116409
1.4572913659596121,0,N,1.082570473246977,0.51108137576593615,0.39460023132349231
0.43718740978788367,0,N,1.8604346882912484,0.24991552480796089,0.39460023132349231
0.16052219427041509,0,N,0.95798154378277722,0.0917851905947491,0.13153341044116409
0.20154029529228679,0,N,1.1964270230195038,0.1594663752392409,0
0.024711940822761898,0.40000000000000002,N,1.0909697269187206,0.0219796015208268,0
0.19432205210089529,0,N,1.034508077236443,0.089978742001524906,0.13153341044116409
1.0342427830414644,0,Y,1.8651009403311061,0.3657045537038881,0.26306682088232819
0.36222682241886328,0.40000000000000002,N,0.398497924203844,0.4725997693855119,0
0.71190233537090841,0.40000000000000002,Y,1.3938094843054825,0.2974841195412703,0
0.58911778623899214,0,Y,1.4908675267345222,0.5963213600725602,0.39460023132349231
0.15472093438592471,0,N,0.34296952492953792,0.12728831976122559,0.26306682088232819
0.8464692402276045,0.40000000000000002,Y,0.8221936094229193,0.30117786686293979,0.13153341044116409
0.52617520170924725,0.40000000000000002,N,0.59728026110178023,0.44640551893380509,0.52613364176465638
0.27905579348162779,0,N,0.85579062410989448,0.23271950656438539,0.13153341044116409
0.59340904421875407,0,N,1.1287663684415676,0.50031555374728376,0
0.088975389441653202,0,N,0.14372056282761581,0.052116713179478497,0
0.168034996354926,0,N,0.070460405801850506,0.15923836890771789,0
0.85670128598859752,0.40000000000000002,N,0.7293351938297522,0.38789023356753399,0.65766705220582056
0.43408678986031002,0,Y,0.84085861758235025,0.27933512880902323,0.9207338730881488
0.77515498189341081,0.40000000000000002,Y,0.68407254904313253,0.38748337241658293,0.26306682088232819
0.27905579348162779,0,Y,0.2823082484113883,0.14881138652403739,0.13153341044116409
1.3271149389203605,0,N,1.1721625124122437,0.7256285464944543,0.13153341044116409
0.50775751933945978,0.40000000000000002,N,0.91785177624000158,0.43163768980670381,0.39460023132349231
0.32816961313439441,0.40000000000000002,Y,1.1828948921039164,0.24649639944005899,0.78920046264698474
0.27905579348162779,0.40000000000000002,N,0.46475870316982282,0.14881138652403739,0
0.89917977899635648,0,N,0.48855658857309681,0.44715136888971918,0.13153341044116409
0.0020464091521986,0,N,1.945827100620644,0.052646490403164402,0
0.120924177175372,0,N,1.841303054927832,0.121463529945518,0.26306682088232819
0.38527062972059051,0,N,0.67427341975943178,0.66720693988264623,0.26306682088232819
0.021642327094463999,0,Y,0.93605015919544643,0.013713122704442899,0.78920046264698474
0.18603719565441859,0.40000000000000002,N,0.58701450661409338,0.27442825653405922,0.26306682088232819
0.24555979640404979,0,N,1.3555462175786497,0.2213999655384622,0.13153341044116409
0.24994097236171131,0,N,0.62667764895288358,0.1498224607242746,0.13153341044116409
0.1240247971029457,0.40000000000000002,N,0.49882234306078371,0.092872639830472004,0.65766705220582056
0.4546501012199784,2,Y,0.92858415593167398,0.23328933593070381,0.26306682088232819
0.34106819203310068,0,Y,1.9523598534764444,0.29798137770687833,0.13153341044116409
0.41002597922233852,0.40000000000000002,N,0.30097325657081891,0.36546797009787207,0
0.168034996354926,0,N,1.3429473370710341,0.1492635207673125,0.26306682088232819
0.20895697815904291,0,N,1.8291707996242024,0.54938256104202476,0
0.1240247971029457,0,N,0.9761799267382224,0.14881138652403739,0
0.28820882350782517,0,Y,0.86092350135373819,0.17027858912515109,0.52613364176465638
0.81168028464022823,0,N,0.4596258259259795,0.67533170720740632,0
0.15503099637868209,0,N,0.35230202900925328,0.17864538476060551,0
0.74724940254524796,0,N,0.88798776318491257,0.62366921665107944,0
0.85670128598859752,0.40000000000000002,N,1.0261088235646991,0.2665624483139924,0.39460023132349231
0.077515498189341003,0.40000000000000002,Y,0.21278109301750911,0.20044717565194239,0.13153341044116409
0.68734542554452505,0,N,1.1334326204814251,0.191639731862534,0.39460023132349231
0.52617520170924725,0,N,1.6602524757813548,0.3347144880356529,0.78920046264698474
0.58911778623899214,0,N,0.43909431695060569,0.29798137770687833,0.65766705220582056
0.062012398551472801,0,N,1.6910497392444157,0.089143390050900995,0
1.0542107753750387,0,Y,1.3863434810417106,0.56713595295765507,0.52613364176465638
0.046509298913604599,0,N,0.93884991041936083,0.061795533472381599,0
0.32181954352272357,0,N,1.4698693925551625,0.22298810384959039,0.39460023132349231
0.22621502867591781,0,N,1.5589948065164436,0.24713827791211879,0.13153341044116409
0.7406605851991539,0,N,1.6952493660802872,0.52999396768304829,0.65766705220582056
0.31936075192015762,0,Y,1.3368812094192191,0.3367625920145933,0.13153341044116409
0.62259207897707713,0,N,0.65747491241594391,0.31408576995497778,0.26306682088232819
0.26943146922643929,0.40000000000000002,Y,0.4507599470502498,0.1200911660266358,0.78920046264698474
0.17554469781950929,0,N,1.2272242864825642,0.2480690986570997,0
0.062012398551472801,0.40000000000000002,Y,0.57954850335032126,0.074226390932616904,0.39460023132349231
1.4548108700175533,0,N,1.275286682493098,0.71446399308937014,0.26306682088232819
0.3228303456191125,0,N,1.9472269762326009,0.34010101641726531,0
0.29571852497240858,0.40000000000000002,N,0.2407786052566552,0.26161873105120631,0
0.32816961313439441,0,N,0.83059286309466307,0.23635172126469189,0.39460023132349231
0.39125792680073518,1.2,Y,0.58841438222605069,0.30744464736252208,0
0.81168028464022823,0,Y,1.2286241620945215,0.40505559737792157,0.39460023132349231
0.0040928183043972,0,Y,0.75126657841708311,0.055928230209186899,0
0.30975193076460689,0,N,0.39056529573608612,0.14867579100205211,0.26306682088232819
0.16654049754983549,0,N,1.8525020598234907,0.31643870281090042,0.26306682088232819
0.1240247971029457,0,Y,0.42322906001508959,0.074226390932616904,0.39460023132349231
1.3565832307120202,0.40000000000000002,Y,0.52915298131985833,0.60651914276478835,0
0.1093898710447981,0,N,2.1861390806733132,0.13472973935637719,0
0.093018597827209296,0,N,1.9868901185713912,0.19853474177998279,0.13153341044116409
0.27429324127287469,0.40000000000000002,Y,1.0205093211168701,0.1465201354594689,0.78920046264698474
0.34416261072081922,0,N,1.341547461459077,0.25748813941035781,0.13153341044116409
0.27771632567291599,0,N,1.8459693069676899,0.4364813140054063,0.26306682088232819
0.1240247971029457,0,N,1.7213803775034904,0.14881138652403739,0.26306682088232819
0.37728343278716081,0,N,0.60008001232569497,0.1305927334059078,0.9207338730881488
0.88155585532802783,0.40000000000000002,N,1.6789174839407854,0.27403586487225268,0.13153341044116409
0.41002597922233852,0.80000000000000004,N,0.49228959020498297,0.70690607173110465,0.39460023132349231
0.074290853464664394,0,N,0.6182783952811397,0.090102329339219897,0.13153341044116409
0.062012398551472801,0.40000000000000002,N,0.88845438838889812,0.14881138652403739,0.13153341044116409
0.1240247971029457,0,Y,0.47875745928939561,0.2482580224509327,0.13153341044116409
0.28529734139583363,0,N,2.0228202592782951,0.19986876901113099,0.13153341044116409
0.80616118116914715,0.40000000000000002,Y,0.93884991041936083,0.80515934772853748,0.13153341044116409
0.27905579348162779,0,N,1.3770109769619949,0.72376757626945276,0
0.33323602609604969,0,N,1.8455026817637039,0.71782151125091365,0
0.41845346418548368,0.80000000000000004,Y,0.44889344623430671,0.36003109684423551,0.39460023132349231
0.73036652703960947,0,N,1.6653853530251983,0.65373845596374303,0.13153341044116409
0.66973390435590685,0,N,0.3289707688099649,0.2805782369305454,0.65766705220582056
0.32816961313439441,0.40000000000000002,Y,0.85439074849793739,0.43163768980670381,0.26306682088232819
0.58911778623899214,0.40000000000000002,N,0.55061774070320357,0.29798137770687833,0.65766705220582056
0.1612322362338294,0,N,0.55948361957893333,0.1537837444251306,0.39460023132349231
0.13952789674081389,0.40000000000000002,N,0.48202383571729601,0.1021957642793996,0.26306682088232819
0.2942860385658696,0,N,0.8226602346269053,0.19526292177837401,0.65766705220582056
0.28835765326434881,0,N,0.90851927216028616,0.3069315771778488,0
0.093018597827209296,0.40000000000000002,N,0.4096969290995025,0.095880130607704894,0.52613364176465638
0.37958719339334812,0.80000000000000004,Y,1.0550395862118167,0.19717677276524989,0
0.31006199275736429,0,N,1.5132655365258385,0.31519328255451479,0.13153341044116409
0.1204900903855117,0,N,1.950026727456516,0.22740532562849661,0.65766705220582056
0.43592235685743358,0,Y,1.7983735361611417,0.1400401910424863,0
1.0170033362441548,0,Y,1.670051605065056,0.62988460808869928,0
0.031006199275736401,0,N,1.1651631343524571,0.0327902491218297,0.26306682088232819
0.37728343278716081,0,N,1.7820416540216399,0.1960684397307613,0.26306682088232819
0.13952789674081389,0,N,1.6649187278212128,0.20475013321760269,0.13153341044116409
0.40308059058457357,0,N,0.60427963916156691,0.57974693318224357,0.13153341044116409
0.65113018479046492,0,N,1.3163497004438454,0.24094578406814551,0.26306682088232819
0.0155030996378682,0,N,1.4395387542960878,0.050494787865347501,0.26306682088232819
0.68734542554452505,0.40000000000000002,Y,1.2286241620945215,0.5756364794902048,0
0.18603719565441859,0,N,1.9700916112279037,0.2190089943347881,0.39460023132349231
0.1916834245425301,0.40000000000000002,Y,0.17685095231060519,0.1406089762188665,0.26306682088232819
0.168034996354926,0,N,1.3270820801355181,0.26563632642373369,0
0.3565712916709689,0,Y,1.7274465051553054,0.2660164115612676,0.26306682088232819
0.4709221545998849,0,Y,1.3452804630909627,0.20781065392670101,0.26306682088232819
0.1271254170305193,0.40000000000000002,Y,0.58141500416626435,0.1083223995722656,0
0.2204168694113551,0,N,1.4134077428728848,0.35540302328279227,0
0.2276010057835432,0,Y,0.59261400906192285,0.1773774398355514,0.52613364176465638
0.35058089397089659,0,N,1.167962885576372,0.30560896145102617,0.13153341044116409
0.2506541149450533,0.80000000000000004,N,1.869300567166978,0.27065343532218178,0.39460023132349231
0.52988974438248038,0,N,1.0251755731567276,0.33694830865361591,0.26306682088232819
0.43408678986031002,0,Y,1.1646965091484716,0.22339638211545779,0.65766705220582056
0.1240247971029457,0,N,2.1394765602747365,0.1239497461885624,0.13153341044116409
0.37728343278716081,0,N,1.3466803387029205,0.49070900631510878,0.13153341044116409
0.71190233537090841,0,Y,1.4362723778681874,0.33682188708608851,0.26306682088232819
1.0219643281282726,0,N,1.2664208036173683,0.56250952026611478,0
0.27905579348162779,0,N,1.2528886727017816,0.18610388431974759,0.39460023132349231
0.95189031776510835,0.40000000000000002,Y,1.2762199329010695,0.52505122002520488,0
0.34106819203310068,0,Y,0.74613370117323963,0.25536134826106849,0.39460023132349231
0.68981351900687371,0.80000000000000004,N,0.8287263622787201,1.1555894910152671,0
0.1387403392792102,0.40000000000000002,Y,0.71766956373010804,0.1357490924911251,0.26306682088232819
1.0342427830414644,0,N,0.31357213707843462,0.42671508009767001,0.26306682088232819
0.38527062972059051,0.80000000000000004,N,0.49602259183686909,0.38477534039664962,0.65766705220582056
0.17313861675571221,0.40000000000000002,Y,0.4848235869412108,0.16333062386083241,0.26306682088232819
0.45250447223009738,0,Y,0.65747491241594391,0.15471851817487789,0.52613364176465638
0.16495298014691781,0,N,0.13578793435985781,0.18094029048995799,0
0.71190233537090841,0,N,0.80586172728341787,0.44640551893380509,0
0.15503099637868209,0,Y,0.3737667883925983,0.1275014090936302,0.52613364176465638
0.83111186972633222,0,N,1.1791618904720309,0.51809475207138866,0.13153341044116409
0.15935636117764729,0.40000000000000002,Y,1.0452404569281155,0.075960492080117403,0.52613364176465638
0.3722232210653606,0,Y,0.33923652329765169,0.38762657560811847,0
0.32034364843719848,0.40000000000000002,N,0.21791397026135251,0.2813638406891098,0
0.89220958539917095,0,N,1.4400053795000736,0.44379802748792901,0.26306682088232819
0.60046605517391172,0,N,0.7293351938297522,0.50597409360781809,0.26306682088232819
0.50017340299661461,0,Y,0.93138390715558883,0.42555655136114851,0.13153341044116409
0.32629683869813991,0.40000000000000002,Y,1.0541063358038449,0.12242537804866491,0.39460023132349231
0.040828963206289703,0.40000000000000002,N,1.0429073309081869,0.13256334357442881,0
0.077515498189341003,0.80000000000000004,N,0.5991467619177232,0.1040603891691851,0.39460023132349231
0.15503099637868209,0,N,0.98971205765380943,0.1275014090936302,0
0.66973390435590685,0,N,1.7638432710661949,0.37422380107033137,0
0.11442527780717771,0.40000000000000002,N,1.6336548391541661,0.0995937921231973,0.13153341044116409
0.66278851571814201,0,N,1.7633766458622091,0.55594604065406983,0
0.1444888886249317,0.40000000000000002,N,0.28417474922733138,0.13581912780198549,0.52613364176465638
0.43408678986031002,0.80000000000000004,N,1.0163096942809982,0.37256637329829878,0.52613364176465638
0.74414878261767436,0,N,1.0993689805904645,1.1650319514571412,0
0.34416261072081922,0,N,1.3452804630909627,0.60128372358424409,0.65766705220582056
0.15503099637868209,0,N,0.97711317714619361,0.089143390050900995,0
0.71055666632234138,0,N,1.8641676899231348,0.20950253996669679,0.13153341044116409
0.43408678986031002,0,N,1.841303054927832,0.18610388431974759,0.52613364176465638
0.4929985684842092,0,Y,1.8562350614553769,0.34977648038536668,0
0.0040928183043972,0,N,1.8846991988985085,0.020748949093568399,0.39460023132349231
0.15503099637868209,0.80000000000000004,Y,0.57861525294234961,0.14881138652403739,0
0.71190233537090841,0.40000000000000002,N,0.60427963916156691,0.44640551893380509,0.13153341044116409
0.36423912475185849,0,Y,1.5421962991729561,0.2712863635947706,0
0.093018597827209296,0,N,0.2193138458733099,0.065939177487458603,0
0.51160228804965113,0,N,1.2449560442340235,0.1627960731974287,0.13153341044116409
0.33486695217795343,0,N,0.94911566490704757,0.15966014705778739,0
0.18541707166890381,0,Y,1.1007688562024216,0.1037620491868194,0.39460023132349231
0.18603719565441859,0,N,1.825437797992316,0.14881138652403739,0.26306682088232819
0.43408678986031002,0.40000000000000002,Y,0.69387167832683372,0.27933512880902323,0.52613364176465638
0.72532181841744714,0,N,1.9252955916452696,0.45447561545679671,0.65766705220582056
0.22609720511867001,0,N,1.3980091111413546,0.36344067533270169,0.39460023132349231
0.32816961313439441,0,N,1.8772331956347359,0.191639731862534,0.39460023132349231
1.3565832307120202,0.80000000000000004,Y,0.52448672928000095,0.66720693988264623,0.13153341044116409
0.94196523337694515,0,Y,1.2066927775071905,0.51974576553380025,0
0.15503099637868209,0,N,0.1068571717127403,0.17864538476060551,0.13153341044116409
0.39395546613772431,0.40000000000000002,N,0.53055285693181564,0.25520128886052929,1.3153341044116411
0.47756988372460268,0,N,1.309350322384059,0.21810084742846689,0
0.85670128598859752,0.80000000000000004,N,0.50302196989665571,0.4741676951628348,0.39460023132349231
0.3445408863519831,0,N,1.6691183546570847,0.22548476199201761,0
0.2821564134092015,0,N,2.0568838991692564,0.75294985081454313,0.13153341044116409
0.18541707166890381,0,Y,0.47969070969736738,0.064716803994710803,0.9207338730881488
0.0155030996378682,0,Y,1.4950671535703941,0.1115188887283271,0
0.30151358361704378,0.40000000000000002,Y,0.63227715140071261,0.26626537627655178,0
1.0045605484748017,0.40000000000000002,Y,1.1012354814064076,0.4148150440510589,0
0.7241807902841001,0,Y,0.70133768159060617,0.60517213774440726,0
0.52617520170924725,0,N,0.081192785493523198,0.38258209401628829,0
0.73615538444438944,0.80000000000000004,N,0.93045065674761718,0.61477368798187759,0
0.58911778623899214,0,N,1.9042974574659104,0.4968747241456648,0
0.32629683869813991,0.40000000000000002,N,0.32943739401395061,0.19063865205170591,0.26306682088232819
0.0040928183043972,0,N,1.2356235401543081,0.062182331259518699,0.13153341044116409
0.69691393864101747,0,Y,1.114300987118009,0.34984181684150478,0.39460023132349231
0.41002597922233852,0.80000000000000004,N,0.42182918440313227,0.1925317684098074,0.13153341044116409
0.98021758142342119,0,Y,1.3098169475880448,0.69463713829629836,0.39460023132349231
0.66278851571814201,0,Y,0.8254599858508197,0.83409832601800871,0
0.53731882972894685,0.40000000000000002,N,0.4848235869412108,0.68319050443788742,0.26306682088232819
0.48933983696967231,0,Y,0.4110968047114596,0.1468985051421042,0.39460023132349231
0.14262851666838749,0,N,1.6803173595527428,0.13886674530684651,0.26306682088232819
0.80061727273864547,0,N,0.83525911513452078,0.30740429687990711,0.39460023132349231
0.79995994131399994,0,Y,1.3737446005340943,0.52566192196910733,0
0.88367667935848815,0.40000000000000002,N,0.65094215956014356,0.29300901980578509,1.0522672835293128
0.27905579348162779,0.80000000000000004,Y,0.59448050987786571,0.1959177034546711,0.39460023132349231
0.62628491731081737,0,N,1.6593192253733835,0.52667635249414635,0
0.89917977899635648,0,N,1.1460315009890409,0.42993946404208278,0
0.37728343278716081,1.6000000000000001,N,0.9901786828577952,0.32701977779547281,0.13153341044116409
0.27905579348162779,0.40000000000000002,Y,0.244978232092527,0.1239497461885624,0.39460023132349231
0.48933983696967231,0.40000000000000002,Y,0.94584928847914762,0.24997847454423999,0.39460023132349231
0.36098657444783377,0.40000000000000002,Y,0.58281487977822166,0.20918212282563611,0.39460023132349231
0.85149534513020142,0,N,1.9789574901036331,0.49332641756539858,0.52613364176465638
0.19749708690673071,0,Y,0.3415696493175806,0.18286189831637531,0.39460023132349231
0.15503099637868209,0.40000000000000002,N,0.79839572401964531,0.074226390932616904,0.26306682088232819
0.23361310782310851,0,Y,1.6896498636324584,0.47115117960113528,0.39460023132349231
0.35269241614157421,0,N,0.41063017950747399,0.2973774629975745,0.65766705220582056
0.52710538768751936,0.40000000000000002,Y,0.4451604446024206,0.22339638211545779,0.13153341044116409
0.184499288170342,0,N,1.0877033504908205,0.34523843091360229,0.13153341044116409
0.3117983399168055,0,Y,1.3956759851214255,0.2057943231558825,0.26306682088232819
0.15503099637868209,0.80000000000000004,N,0.51935385203615747,0.081006838296837302,0.26306682088232819
1.1831345519635508,0.80000000000000004,N,0.2426451060725982,0.583761246814965,0.13153341044116409
0.16976514227451209,0,N,1.9906231202032769,0.20087171344684879,0
0.37056128878418121,0,Y,1.9210959648093984,0.1416950829246687,0.39460023132349231
0.59340904421875407,0,N,1.8599680630872628,0.27273637049406341,0.26306682088232819
